17
Coordinates from ORCA-job step6_ts E -744.801780758200
  C           2.91251968456943      0.53734530393295     -0.44257514275973
  S           1.78819325642836     -0.49483099569038      0.48799652815529
  O           2.31489642228103     -1.48815978964982      1.48983853429420
  C           0.09175510487384     -0.28340252978522      0.21130951548185
  C          -0.77976465459258     -0.99893044512632      1.04061508574595
  C          -2.14778241975882     -0.85945060475783      0.85972349110328
  C          -2.65990926498867     -0.02061180406115     -0.12458165220695
  C          -1.78030139469190      0.67954630695650     -0.94513890308620
  C          -0.40797203705555      0.55262328906882     -0.79495824960091
  H           3.37958873084149     -0.01518055055624     -1.25680298386076
  H           2.33942452901299      1.37971823834659     -0.82419476983896
  H           3.66550855428684      0.89661569969081      0.25764620491209
  H          -0.37750437081288     -1.64599837565376      1.80711511276522
  H          -2.81926444364259     -1.41439231192115      1.50267208740927
  H          -3.72837916513621      0.08199464879705     -0.25596233454909
  H          -2.16327070234990      1.32846306754971     -1.72266885286125
  H           0.25562662073513      1.08531691285944     -1.46104838110332
