17
Coordinates from ORCA-job step6_ts E -744.673642219595
  C       2.646574      0.077317     -0.546522
  S       1.715127     -0.110868      0.836303
  O       2.170783     -0.483196      2.004580
  C       0.141460      0.257281      0.447144
  C      -0.498793     -0.893364      0.882450
  C      -1.809779     -1.130266      0.483262
  C      -2.466870     -0.219136     -0.336228
  C      -1.818305      0.939624     -0.754422
  C      -0.510687      1.185844     -0.356318
  H       2.392006     -0.961308     -0.753644
  H       2.317523      0.730474     -1.354130
  H       3.718248      0.184558     -0.383977
  H       0.035866     -1.576249      1.530123
  H      -2.319089     -2.025609      0.816327
  H      -3.488484     -0.405110     -0.641734
  H      -2.334239      1.654399     -1.382631
  H      -0.007979      2.096277     -0.661597
17
Coordinates from ORCA-job step6_ts E -744.732053983248
  C       2.749377      0.077208     -0.565192
  S       1.721041     -0.125661      0.802938
  O       2.079774     -0.513324      2.075967
  C       0.122390      0.240866      0.420018
  C      -0.538868     -0.892499      0.874586
  C      -1.851860     -1.126794      0.508241
  C      -2.514718     -0.212475     -0.306839
  C      -1.855458      0.931140     -0.746017
  C      -0.531527      1.169480     -0.381595
  H       2.587624     -0.943698     -0.888717
  H       2.427297      0.762666     -1.348432
  H       3.806134      0.213229     -0.342549
  H      -0.007804     -1.579325      1.520271
  H      -2.360166     -2.013765      0.865252
  H      -3.545398     -0.386155     -0.587256
  H      -2.376864      1.647844     -1.366756
  H      -0.027607      2.071928     -0.704935
17
Coordinates from ORCA-job step6_ts E -744.753297741189
  C       2.727533      0.105339     -0.584078
  S       1.715432     -0.116649      0.800546
  O       2.218583     -0.547746      2.033015
  C       0.102186      0.194490      0.461048
  C      -0.584343     -0.911141      0.926515
  C      -1.896845     -1.119352      0.536359
  C      -2.519889     -0.204634     -0.316572
  C      -1.823892      0.913847     -0.762145
  C      -0.507602      1.131388     -0.368736
  H       2.643531     -0.901558     -0.966677
  H       2.369340      0.805765     -1.331675
  H       3.768335      0.287755     -0.324006
  H      -0.071317     -1.601901      1.582068
  H      -2.434802     -1.989582      0.889715
  H      -3.544532     -0.361931     -0.627218
  H      -2.308567      1.627011     -1.416986
  H       0.030214      2.009563     -0.702190
17
Coordinates from ORCA-job step6_ts E -744.772689139816
  C       2.647425      0.060754     -0.632317
  S       1.741329     -0.027442      0.852557
  O       2.308858     -0.381791      2.117213
  C       0.101446      0.165018      0.530806
  C      -0.604741     -0.929932      0.970604
  C      -1.898135     -1.141031      0.505403
  C      -2.480112     -0.210457     -0.360221
  C      -1.766082      0.918729     -0.752885
  C      -0.467236      1.114550     -0.313324
  H       2.593422     -0.952856     -1.034120
  H       2.199921      0.751054     -1.337937
  H       3.686073      0.312262     -0.427962
  H      -0.110238     -1.630363      1.631391
  H      -2.453189     -2.019973      0.806447
  H      -3.488649     -0.357160     -0.723897
  H      -2.221033      1.654965     -1.403388
  H       0.094306      1.994337     -0.599384
17
Coordinates from ORCA-job step6_ts E -744.786802767965
  C       2.725221      0.057059     -0.656210
  S       1.755158     -0.017309      0.816115
  O       2.385049     -0.323945      2.102860
  C       0.076422      0.119130      0.527368
  C      -0.667191     -0.954181      0.978721
  C      -1.960650     -1.141343      0.514313
  C      -2.526683     -0.197856     -0.346600
  C      -1.789982      0.916500     -0.740045
  C      -0.480420      1.082174     -0.313056
  H       2.788503     -0.956618     -1.063486
  H       2.254595      0.723122     -1.373172
  H       3.720842      0.399577     -0.382753
  H      -0.188344     -1.670508      1.633206
  H      -2.530144     -2.010759      0.815734
  H      -3.540055     -0.322742     -0.704862
  H      -2.235556      1.667016     -1.380535
  H       0.096598      1.951348     -0.598614
17
Coordinates from ORCA-job step6_ts E -744.790228282344
  C       2.721040      0.087752     -0.676941
  S       1.771106     -0.031260      0.824119
  O       2.416100     -0.318990      2.123299
  C       0.078012      0.076457      0.542946
  C      -0.695906     -0.975789      1.003989
  C      -1.991331     -1.132487      0.533594
  C      -2.528532     -0.192244     -0.347181
  C      -1.763318      0.897766     -0.752621
  C      -0.455417      1.041320     -0.312716
  H       2.787452     -0.902994     -1.128608
  H       2.238497      0.781977     -1.358422
  H       3.710142      0.440007     -0.393068
  H      -0.238193     -1.701156      1.662853
  H      -2.582477     -1.984732      0.842430
  H      -3.540436     -0.303411     -0.714025
  H      -2.185502      1.645700     -1.411833
  H       0.142127      1.892748     -0.608829
17
Coordinates from ORCA-job step6_ts E -744.792949251554
  C       2.784064      0.139538     -0.669741
  S       1.772643     -0.087838      0.784967
  O       2.387231     -0.433885      2.095088
  C       0.075921      0.033591      0.500556
  C      -0.721043     -0.986113      1.006127
  C      -2.032574     -1.108715      0.576962
  C      -2.566923     -0.177821     -0.314085
  C      -1.777861      0.874061     -0.769670
  C      -0.454844      0.991413     -0.366570
  H       2.913126     -0.818711     -1.171680
  H       2.307543      0.855842     -1.332710
  H       3.742891      0.516641     -0.320592
  H      -0.274989     -1.711874      1.672469
  H      -2.638676     -1.933819      0.927920
  H      -3.591864     -0.268028     -0.648600
  H      -2.194456      1.616505     -1.438583
  H       0.153175      1.819878     -0.702872
17
Coordinates from ORCA-job step6_ts E -744.796002617233
  C       2.846508      0.216506     -0.651193
  S       1.775632     -0.162710      0.732990
  O       2.375922     -0.593816      2.037016
  C       0.074866     -0.034861      0.444320
  C      -0.751905     -1.004756      1.013123
  C      -2.083244     -1.071287      0.635689
  C      -2.608343     -0.154928     -0.273696
  C      -1.786508      0.837502     -0.798761
  C      -0.448013      0.913314     -0.440734
  H       3.057140     -0.689244     -1.218300
  H       2.369237      0.961036     -1.281989
  H       3.762074      0.619754     -0.222934
  H      -0.324592     -1.730873      1.690956
  H      -2.713031     -1.851115      1.044349
  H      -3.647816     -0.210972     -0.567674
  H      -2.190802      1.571478     -1.484437
  H       0.176240      1.705636     -0.829739
17
Coordinates from ORCA-job step6_ts E -744.797407614981
  C       2.885873      0.259582     -0.631246
  S       1.776328     -0.210487      0.695251
  O       2.334651     -0.704812      2.000265
  C       0.075690     -0.070331      0.397181
  C      -0.758842     -1.011847      1.007357
  C      -2.102194     -1.047553      0.670708
  C      -2.630802     -0.138755     -0.243119
  C      -1.798101      0.817876     -0.815531
  C      -0.448530      0.868814     -0.496708
  H       3.146401     -0.610880     -1.231724
  H       2.406430      1.018702     -1.243270
  H       3.771734      0.674406     -0.153949
  H      -0.333839     -1.733195      1.691568
  H      -2.739086     -1.800409      1.117428
  H      -3.679912     -0.173412     -0.503916
  H      -2.202840      1.545551     -1.507595
  H       0.180405      1.637417     -0.923714
17
Coordinates from ORCA-job step6_ts E -744.798173233182
  C       2.893901      0.291031     -0.619064
  S       1.776556     -0.241350      0.677088
  O       2.340049     -0.781225      1.963331
  C       0.075876     -0.094598      0.380318
  C      -0.766054     -1.016839      1.011957
  C      -2.114434     -1.030114      0.692207
  C      -2.638143     -0.128730     -0.231187
  C      -1.795399      0.803050     -0.829405
  C      -0.442677      0.838290     -0.523942
  H       3.181938     -0.555108     -1.241273
  H       2.406585      1.057764     -1.215163
  H       3.763613      0.711535     -0.117447
  H      -0.346853     -1.733725      1.704143
  H      -2.759650     -1.762755      1.160184
  H      -3.690592     -0.149836     -0.479506
  H      -2.194537      1.524245     -1.531466
  H       0.193184      1.589033     -0.971789
17
Coordinates from ORCA-job step6_ts E -744.799164247591
  C       2.920601      0.325054     -0.594577
  S       1.777132     -0.280547      0.644190
  O       2.295382     -0.883891      1.922388
  C       0.078630     -0.124909      0.335341
  C      -0.765644     -1.021800      1.000903
  C      -2.122463     -1.009760      0.718767
  C      -2.652030     -0.111297     -0.203117
  C      -1.804577      0.789519     -0.841492
  C      -0.443137      0.799350     -0.575667
  H       3.266348     -0.491191     -1.227404
  H       2.417104      1.084165     -1.187847
  H       3.754160      0.773615     -0.057020
  H      -0.344585     -1.731504      1.699259
  H      -2.769697     -1.719192      1.218722
  H      -3.711647     -0.110333     -0.419537
  H      -2.206786      1.506977     -1.545568
  H       0.194573      1.526408     -1.058356
17
Coordinates from ORCA-job step6_ts E -744.800329474107
  C       2.934151      0.379972     -0.559398
  S       1.777651     -0.337403      0.602064
  O       2.288795     -1.046769      1.827639
  C       0.080625     -0.166751      0.295667
  C      -0.771130     -1.024965      1.002932
  C      -2.134749     -0.974205      0.757643
  C      -2.662251     -0.087590     -0.175792
  C      -1.804242      0.765422     -0.864304
  C      -0.437126      0.742372     -0.633774
  H       3.347797     -0.387637     -1.211926
  H       2.407361      1.133446     -1.139790
  H       3.721853      0.852879      0.024803
  H      -0.354338     -1.723242      1.714891
  H      -2.789394     -1.646073      1.298175
  H      -3.726863     -0.059104     -0.363601
  H      -2.201940      1.469957     -1.583854
  H       0.207166      1.430356     -1.162389
17
Coordinates from ORCA-job step6_ts E -744.800860630355
  C       2.937510      0.402989     -0.541016
  S       1.779471     -0.368068      0.581419
  O       2.286789     -1.129668      1.776466
  C       0.082899     -0.188421      0.276066
  C      -0.772257     -1.028850      1.000259
  C      -2.138360     -0.958066      0.772496
  C      -2.664636     -0.071923     -0.161627
  C      -1.802291      0.760481     -0.869768
  C      -0.432974      0.718307     -0.657158
  H       3.418435     -0.348273     -1.166046
  H       2.381272      1.108849     -1.153048
  H       3.675897      0.935996      0.055949
  H      -0.357467     -1.724450      1.715889
  H      -2.796062     -1.613496      1.329308
  H      -3.731143     -0.027657     -0.334933
  H      -2.198003      1.463310     -1.592074
  H       0.214285      1.389606     -1.203195
17
Coordinates from ORCA-job step6_ts E -744.801151710220
  C       2.938825      0.419169     -0.528074
  S       1.780564     -0.387632      0.567252
  O       2.285449     -1.187574      1.737801
  C       0.084201     -0.201570      0.264035
  C      -0.772807     -1.029638      0.999957
  C      -2.140135     -0.946962      0.782868
  C      -2.665789     -0.062214     -0.152686
  C      -1.801157      0.756408     -0.873992
  C      -0.430658      0.702332     -0.672709
  H       3.459491     -0.319662     -1.135966
  H       2.369362      1.097128     -1.159305
  H       3.645245      0.984565      0.077955
  H      -0.358976     -1.722590      1.718652
  H      -2.799366     -1.591427      1.350580
  H      -3.733248     -0.008405     -0.317120
  H      -2.195760      1.456956     -1.599113
  H       0.218123      1.361780     -1.231149
17
Coordinates from ORCA-job step6_ts E -744.801493403695
  C       2.938583      0.447998     -0.505767
  S       1.782301     -0.418388      0.543952
  O       2.285893     -1.280125      1.670401
  C       0.086089     -0.224362      0.244637
  C      -0.773934     -1.029748      1.001504
  C      -2.142732     -0.927430      0.801395
  C      -2.666883     -0.047014     -0.138780
  C      -1.798705      0.746310     -0.883704
  C      -0.426745      0.672172     -0.700608
  H       3.507386     -0.265701     -1.100437
  H       2.357506      1.100819     -1.152899
  H       3.603052      1.042000      0.120354
  H      -0.361865     -1.716645      1.726915
  H      -2.804406     -1.551907      1.388300
  H      -3.735496      0.022672     -0.289072
  H      -2.191295      1.440952     -1.615565
  H       0.224614      1.309062     -1.281639
17
Coordinates from ORCA-job step6_ts E -744.801707714636
  C       2.937523      0.475641     -0.482678
  S       1.783607     -0.447429      0.519734
  O       2.289502     -1.369886      1.595929
  C       0.087160     -0.243993      0.227783
  C      -0.774933     -1.026054      1.006097
  C      -2.144474     -0.907704      0.819941
  C      -2.667546     -0.033319     -0.126366
  C      -1.797130      0.735283     -0.894105
  C      -0.424210      0.642701     -0.727662
  H       3.544811     -0.211470     -1.070518
  H       2.351269      1.115032     -1.138483
  H       3.565604      1.083887      0.167006
  H      -0.363987     -1.705749      1.738868
  H      -2.807739     -1.512984      1.424882
  H      -3.736799      0.049824     -0.264736
  H      -2.188329      1.422058     -1.634093
  H       0.229035      1.254829     -1.332613
17
Coordinates from ORCA-job step6_ts E -744.801714043008
  C       2.934627      0.498300     -0.463853
  S       1.784615     -0.468591      0.501531
  O       2.296246     -1.431788      1.538875
  C       0.087668     -0.257591      0.217621
  C      -0.776163     -1.017022      1.015696
  C      -2.145781     -0.890016      0.836180
  C      -2.667337     -0.025845     -0.120362
  C      -1.795223      0.719757     -0.908493
  C      -0.422003      0.613805     -0.752660
  H       3.532715     -0.157457     -1.095251
  H       2.347772      1.179725     -1.075220
  H       3.571858      1.063790      0.214866
  H      -0.366565     -1.687070      1.758081
  H      -2.810454     -1.478236      1.456224
  H      -3.736731      0.065260     -0.252557
  H      -2.185083      1.394814     -1.659884
  H       0.233204      1.198832     -1.381808
17
Coordinates from ORCA-job step6_ts E -744.801743297605
  C       2.931055      0.516418     -0.449148
  S       1.785552     -0.481823      0.490003
  O       2.300056     -1.466006      1.506334
  C       0.088454     -0.268530      0.209456
  C      -0.776744     -1.007189      1.025334
  C      -2.146254     -0.874552      0.849409
  C      -2.666474     -0.022359     -0.118596
  C      -1.793090      0.701050     -0.925734
  C      -0.419807      0.584777     -0.777563
  H       3.481742     -0.097287     -1.160821
  H       2.347740      1.273427     -0.968135
  H       3.612565      0.995408      0.252726
  H      -0.368319     -1.666179      1.778208
  H      -2.812006     -1.447254      1.482667
  H      -3.735854      0.074374     -0.246836
  H      -2.181910      1.363281     -1.688994
  H       0.236659      1.143108     -1.429324
17
Coordinates from ORCA-job step6_ts E -744.801762490860
  C       2.915100      0.543639     -0.434057
  S       1.788286     -0.500563      0.479228
  O       2.313319     -1.503940      1.471690
  C       0.091404     -0.285560      0.205257
  C      -0.778855     -0.993126      1.042889
  C      -2.147249     -0.851909      0.865932
  C      -2.661132     -0.019106     -0.122531
  C      -1.782893      0.671563     -0.952552
  C      -0.410356      0.541446     -0.807381
  H       3.366938      0.017128     -1.273700
  H       2.347881      1.407108     -0.774514
  H       3.679417      0.868695      0.270706
  H      -0.375355     -1.634969      1.813119
  H      -2.817591     -1.400404      1.515566
  H      -3.729831      0.084946     -0.250867
  H      -2.167130      1.313796     -1.734991
  H       0.251412      1.061923     -1.484807
17
Coordinates from ORCA-job step6_ts E -744.801781615816
  C       2.914149      0.533888     -0.444882
  S       1.787897     -0.492883      0.489219
  O       2.314013     -1.483499      1.493998
  C       0.091333     -0.281072      0.212517
  C      -0.779728     -0.999789      1.039459
  C      -2.147835     -0.862249      0.857660
  C      -2.660485     -0.021801     -0.124966
  C      -1.781312      0.682745     -0.942236
  C      -0.408924      0.558108     -0.790795
  H       3.390808     -0.028457     -1.246774
  H       2.339179      1.366241     -0.845007
  H       3.659608      0.908382      0.255423
  H      -0.377035     -1.648235      1.804566
  H      -2.818936     -1.419990      1.498582
  H      -3.729006      0.079238     -0.257150
  H      -2.164675      1.333928     -1.717671
  H       0.254314      1.096110     -1.452958
17
Coordinates from ORCA-job step6_ts E -744.801783492424
  C       2.912899      0.536946     -0.442745
  S       1.788134     -0.494658      0.487933
  O       2.314711     -1.487824      1.489992
  C       0.091655     -0.283059      0.211357
  C      -0.779750     -0.998892      1.040503
  C      -2.147800     -0.859736      0.859549
  C      -2.660065     -0.020814     -0.124602
  C      -1.780565      0.679859     -0.944844
  C      -0.408223      0.553265     -0.794574
  H       3.381190     -0.016622     -1.255568
  H       2.339765      1.378303     -0.826488
  H       3.664905      0.897788      0.257722
  H      -0.377379     -1.646018      1.806896
  H      -2.819180     -1.414977      1.502345
  H      -3.728550      0.081546     -0.256054
  H      -2.163638      1.328982     -1.722151
  H       0.255256      1.086578     -1.460285
17
Coordinates from ORCA-job step6_ts E -744.801780758200
  C       2.912520      0.537345     -0.442575
  S       1.788193     -0.494831      0.487997
  O       2.314896     -1.488160      1.489839
  C       0.091755     -0.283403      0.211310
  C      -0.779765     -0.998930      1.040615
  C      -2.147782     -0.859451      0.859723
  C      -2.659909     -0.020612     -0.124582
  C      -1.780301      0.679546     -0.945139
  C      -0.407972      0.552623     -0.794958
  H       3.379589     -0.015181     -1.256803
  H       2.339425      1.379718     -0.824195
  H       3.665509      0.896616      0.257646
  H      -0.377504     -1.645998      1.807115
  H      -2.819264     -1.414392      1.502672
  H      -3.728379      0.081995     -0.255962
  H      -2.163271      1.328463     -1.722669
  H       0.255627      1.085317     -1.461048
