17
Coordinates from ORCA-job step5_ts_v2 E -744.215716759995
  C       2.881552      0.582589     -0.451053
  S       1.796122     -0.421052      0.587923
  O       2.334923     -1.330868      1.700952
  C       0.093912     -0.259773      0.251817
  C      -0.790369     -0.988904      1.069170
  C      -2.161703     -0.887653      0.838958
  C      -2.662757     -0.074465     -0.185746
  C      -1.770292      0.641403     -0.991371
  C      -0.391118      0.556831     -0.787727
  H       2.982044      0.156260     -1.488070
  H       2.520911      1.647816     -0.466645
  H       3.869764      0.520148      0.094776
  H      -0.388808     -1.618695      1.865194
  H      -2.848818     -1.455577      1.472498
  H      -3.739126     -0.002314     -0.357297
  H      -2.147664      1.276078     -1.798039
  H       0.289747      1.114744     -1.434744
17
Coordinates from ORCA-job step5_ts_v2 E -744.217092439757
  C       2.887867      0.583460     -0.444843
  S       1.796324     -0.421770      0.584997
  O       2.332958     -1.337473      1.693652
  C       0.093922     -0.259026      0.247531
  C      -0.788865     -0.986728      1.067765
  C      -2.160589     -0.885950      0.840338
  C      -2.663958     -0.075311     -0.185146
  C      -1.773196      0.639208     -0.993520
  C      -0.393663      0.555417     -0.792336
  H       2.987814      0.179208     -1.461651
  H       2.541584      1.625453     -0.463982
  H       3.847669      0.522618      0.080830
  H      -0.385705     -1.613856      1.865035
  H      -2.846144     -1.451322      1.477658
  H      -3.740656     -0.003073     -0.354390
  H      -2.152170      1.272762     -1.800245
  H       0.285131      1.112954     -1.441100
17
Coordinates from ORCA-job step5_ts_v2 E -744.217107230086
  C       2.887377      0.584369     -0.443325
  S       1.796217     -0.422845      0.583962
  O       2.332982     -1.340911      1.690566
  C       0.093769     -0.259728      0.246861
  C      -0.789020     -0.986178      1.068201
  C      -2.160781     -0.885006      0.841202
  C      -2.664157     -0.075190     -0.184935
  C      -1.773391      0.638094     -0.994384
  C      -0.393807      0.553769     -0.793733
  H       2.987250      0.183451     -1.463474
  H       2.542051      1.628616     -0.460029
  H       3.850279      0.521189      0.082819
  H      -0.385845     -1.612542      1.866063
  H      -2.846365     -1.449170      1.479557
  H      -3.740891     -0.002553     -0.353779
  H      -2.152392      1.270997     -1.801605
  H       0.285045      1.110205     -1.443373
17
Coordinates from ORCA-job step5_ts_v2 E -744.217102185236
  C       2.887268      0.584835     -0.442983
  S       1.796203     -0.422918      0.583892
  O       2.333125     -1.341487      1.690022
  C       0.093769     -0.259946      0.246766
  C      -0.789068     -0.985967      1.068422
  C      -2.160826     -0.884698      0.841452
  C      -2.664141     -0.075236     -0.184997
  C      -1.773317      0.637588     -0.994791
  C      -0.393737      0.553190     -0.794135
  H       2.985607      0.186006     -1.464008
  H       2.543417      1.629521     -0.457261
  H       3.850399      0.519365      0.081771
  H      -0.385946     -1.612046      1.866538
  H      -2.846464     -1.448482      1.480087
  H      -3.740875     -0.002533     -0.353821
  H      -2.152272      1.270143     -1.802306
  H       0.285178      1.109233     -1.444053
