17
Coordinates from ORCA-job step5_ts_v2 E -744.217102185236
  C           2.88726775258248      0.58483507763484     -0.44298294835396
  S           1.79620314686362     -0.42291823439915      0.58389249490012
  O           2.33312530910086     -1.34148717706659      1.69002211324166
  C           0.09376865573945     -0.25994625369340      0.24676614820456
  C          -0.78906771695095     -0.98596738338956      1.06842234002253
  C          -2.16082642350907     -0.88469770489855      0.84145230437766
  C          -2.66414106185530     -0.07523582142938     -0.18499735779684
  C          -1.77331669035880      0.63758751540743     -0.99479099529715
  C          -0.39373661537105      0.55318956127538     -0.79413538474182
  H           2.98560666832422      0.18600649118777     -1.46400832164435
  H           2.54341734428202      1.62952088991548     -0.45726145844299
  H           3.85039934389923      0.51936504854749      0.08177082608291
  H          -0.38594616560506     -1.61204561627845      1.86653766610385
  H          -2.84646370757799     -1.44848214582222      1.48008711526547
  H          -3.74087471440769     -0.00253254350943     -0.35382088980518
  H          -2.15227198906860      1.27014342821437     -1.80230648114822
  H           0.28517787391263      1.10923327830395     -1.44405322096825
