17
Coordinates from ORCA-job step4_opt E -744.869489826950
  C           2.64657410402237      0.07731676999437     -0.54652190902174
  S           1.83176213781828      0.56846773209958      1.00731604540676
  O           2.17078341476598     -0.48319640419904      2.00457984738120
  C           0.14146034416242      0.25728051124772      0.44714376560252
  C          -0.49879319484002     -0.89336370690722      0.88244967177495
  C          -1.80977874012036     -1.13026642287790      0.48326228774674
  C          -2.46687015326541     -0.21913572979877     -0.33622778534472
  C          -1.81830501183198      0.93962382996027     -0.75442249436758
  C          -0.51068716668272      1.18584389595467     -0.35631793705733
  H           2.39200640206736     -0.96130849634306     -0.75364414555251
  H           2.31752317651007      0.73047396348031     -1.35413015403398
  H           3.71824787487915      0.18455849223564     -0.38397682923737
  H           0.03586640530358     -1.57624949178420      1.53012311724499
  H          -2.31908867796673     -2.02560901977479      0.81632721367735
  H          -3.48848373906023     -0.40510984382903     -0.64173418484897
  H          -2.33423858342352      1.65439937466636     -1.38263131673640
  H          -0.00797859233826      2.09627654587511     -0.66159719263391
