17
Coordinates from ORCA-job step4_opt E -744.867996703514
  C       2.658518      0.103169     -0.549378
  S       1.855213      0.578739      1.002939
  O       2.189444     -0.476601      2.016749
  C       0.155502      0.251886      0.481150
  C      -0.519375     -0.896435      0.907742
  C      -1.832238     -1.134144      0.496949
  C      -2.478027     -0.222981     -0.337480
  C      -1.814317      0.928338     -0.759279
  C      -0.501011      1.167732     -0.349420
  H       2.374974     -0.916474     -0.822010
  H       2.372395      0.798706     -1.341808
  H       3.740797      0.149958     -0.406018
  H      -0.026660     -1.611070      1.564145
  H      -2.350549     -2.028917      0.832562
  H      -3.501540     -0.408262     -0.654050
  H      -2.322267      1.641612     -1.403621
  H      -0.000859      2.074746     -0.679174
17
Coordinates from ORCA-job step4_opt E -744.869140359854
  C       2.648863      0.086477     -0.544254
  S       1.838806      0.576231      1.001984
  O       2.177569     -0.469738      2.015153
  C       0.150264      0.250779      0.456867
  C      -0.505456     -0.894569      0.888203
  C      -1.816912     -1.130427      0.488716
  C      -2.470742     -0.220471     -0.336497
  C      -1.815571      0.933591     -0.755887
  C      -0.506817      1.173876     -0.353725
  H       2.382223     -0.941094     -0.791398
  H       2.346725      0.762645     -1.344774
  H       3.725241      0.162118     -0.390262
  H       0.002712     -1.594563      1.539045
  H      -2.327364     -2.023257      0.825518
  H      -3.492360     -0.405180     -0.643500
  H      -2.326994      1.648680     -1.387217
  H      -0.010187      2.084904     -0.667973
17
Coordinates from ORCA-job step4_opt E -744.869433615279
  C       2.644510      0.074483     -0.542980
  S       1.829914      0.571969      1.002662
  O       2.171847     -0.468720      2.011850
  C       0.144130      0.254629      0.445065
  C      -0.497137     -0.893034      0.878905
  C      -1.808157     -1.129580      0.482344
  C      -2.467382     -0.218923     -0.335740
  C      -1.817940      0.939111     -0.753330
  C      -0.510991      1.182565     -0.355743
  H       2.389723     -0.960583     -0.765856
  H       2.325657      0.734704     -1.349394
  H       3.717048      0.174791     -0.381311
  H       0.027962     -1.582474      1.526278
  H      -2.314690     -2.024821      0.817588
  H      -3.489044     -0.404720     -0.639160
  H      -2.332603      1.655486     -1.379602
  H      -0.012845      2.095119     -0.661579
17
Coordinates from ORCA-job step4_opt E -744.869473485655
  C       2.645047      0.073270     -0.544288
  S       1.830080      0.570511      1.004132
  O       2.171132     -0.472513      2.008986
  C       0.142230      0.256913      0.444922
  C      -0.496610     -0.893190      0.879348
  C      -1.807943     -1.130088      0.481654
  C      -2.467076     -0.219117     -0.335973
  C      -1.818782      0.940280     -0.753242
  C      -0.511581      1.185851     -0.355946
  H       2.391219     -0.963919     -0.758722
  H       2.320677      0.729405     -1.351662
  H       3.716793      0.178972     -0.380873
  H       0.034403     -1.579010      1.526414
  H      -2.314867     -2.026194      0.815568
  H      -3.488809     -0.405342     -0.639976
  H      -2.334469      1.656360     -1.379729
  H      -0.011442      2.097813     -0.660614
17
Coordinates from ORCA-job step4_opt E -744.869492744563
  C       2.646155      0.074860     -0.545987
  S       1.831483      0.569422      1.005957
  O       2.170829     -0.478211      2.006220
  C       0.141334      0.257989      0.446478
  C      -0.497706     -0.893401      0.881456
  C      -1.809030     -1.130487      0.482316
  C      -2.466984     -0.219412     -0.336250
  C      -1.818903      0.940157     -0.753802
  C      -0.511336      1.186972     -0.356036
  H       2.391067     -0.963145     -0.755558
  H       2.318934      0.729495     -1.353293
  H       3.717751      0.181491     -0.382151
  H       0.036564     -1.576837      1.528850
  H      -2.317195     -2.026593      0.815322
  H      -3.488642     -0.405727     -0.641410
  H      -2.335002      1.655482     -1.381339
  H      -0.009318      2.097946     -0.660776
17
Coordinates from ORCA-job step4_opt E -744.869507557196
  C       2.646434      0.076406     -0.546521
  S       1.831898      0.568785      1.006870
  O       2.170766     -0.481415      2.005119
  C       0.141316      0.257685      0.447139
  C      -0.498467     -0.893401      0.882416
  C      -1.809605     -1.130399      0.483012
  C      -2.466889     -0.219380     -0.336291
  C      -1.818529      0.939710     -0.754273
  C      -0.510902      1.186388     -0.356216
  H       2.390989     -0.961697     -0.755220
  H       2.318474      0.730889     -1.353574
  H       3.718096      0.182796     -0.383118
  H       0.036156     -1.576305      1.530124
  H      -2.318480     -2.026073      0.816056
  H      -3.488489     -0.405534     -0.641837
  H      -2.334500      1.654635     -1.382383
  H      -0.008271      2.096912     -0.661305
17
Coordinates from ORCA-job step4_opt E -744.869488303228
  C       2.646632      0.077006     -0.546556
  S       1.831866      0.568679      1.007153
  O       2.170685     -0.482478      2.004882
  C       0.141403      0.257425      0.447121
  C      -0.498707     -0.893374      0.882417
  C      -1.809721     -1.130343      0.483161
  C      -2.466901     -0.219218     -0.336228
  C      -1.818465      0.939650     -0.754340
  C      -0.510810      1.186008     -0.356327
  H       2.391533     -0.961388     -0.754204
  H       2.318141      0.730688     -1.353993
  H       3.718317      0.183700     -0.383631
  H       0.036028     -1.576252      1.530039
  H      -2.318880     -2.025809      0.816195
  H      -3.488519     -0.405246     -0.641740
  H      -2.334474      1.654477     -1.382450
  H      -0.008125      2.096477     -0.661501
17
Coordinates from ORCA-job step4_opt E -744.869489826950
  C       2.646574      0.077317     -0.546522
  S       1.831762      0.568468      1.007316
  O       2.170783     -0.483196      2.004580
  C       0.141460      0.257281      0.447144
  C      -0.498793     -0.893364      0.882450
  C      -1.809779     -1.130266      0.483262
  C      -2.466870     -0.219136     -0.336228
  C      -1.818305      0.939624     -0.754422
  C      -0.510687      1.185844     -0.356318
  H       2.392006     -0.961308     -0.753644
  H       2.317523      0.730474     -1.354130
  H       3.718248      0.184558     -0.383977
  H       0.035866     -1.576249      1.530123
  H      -2.319089     -2.025609      0.816327
  H      -3.488484     -0.405110     -0.641734
  H      -2.334239      1.654399     -1.382631
  H      -0.007979      2.096277     -0.661597
