17
Coordinates from ORCA-job step7_irc_IRC_B E -744.275571886912
  C           2.79815683672545      0.56326626573476     -0.38725377581194
  S           1.88997644687489     -0.88013962243962      0.31824165960861
  O           2.19595632259885     -0.93771798290781      1.79704474176498
  C           0.14369515377757     -0.33442342326529      0.15606751958311
  C          -0.73453513740053     -0.98238844968050      1.03546356762990
  C          -2.11388675227400     -0.84294091770478      0.86671849387565
  C          -2.61854372328174     -0.04111488786068     -0.16338660098077
  C          -1.73805353170643      0.65163662642641     -0.99965648387580
  C          -0.35319365054480      0.50570335307892     -0.84737934895947
  H           2.92529122703524      0.41236122398199     -1.46997919355161
  H           2.32204200875518      1.52708283240650     -0.16227653485463
  H           3.77563675960600      0.49774630261918      0.11183036678988
  H          -0.32349261749138     -1.59672147907766      1.84082262810661
  H          -2.79811883171054     -1.37519650783803      1.53336352218394
  H          -3.69808852596871      0.04151843403263     -0.31494331434661
  H          -2.13020161071287      1.30443867903141     -1.78465321109289
  H           0.31975903448189      1.05221239663620     -1.51244938772741
