17
Coordinates from ORCA-job step7_irc_IRC_F E -744.275207632478
  C           2.80469933691618      0.54423045272730     -0.40549646219155
  S           1.82124359617588     -0.07405686584510      1.01788773680027
  O           2.27186487959569     -1.48839578266427      1.29951634785043
  C           0.12911800159278     -0.16465972743143      0.30597818282669
  C          -0.74623484217082     -0.95796249278304      1.06163439929418
  C          -2.11843156066186     -0.91666714285424      0.80735517341136
  C          -2.61885884054852     -0.10379013841613     -0.21628467813520
  C          -1.73624256893207      0.63027323487351     -1.01388033290064
  C          -0.35893391873779      0.60497577990129     -0.75676091771302
  H           2.68935100055004     -0.09837024255524     -1.28929895684934
  H           2.54628032238172      1.59253525625778     -0.61573018014123
  H           3.83876037338496      0.49205261035355     -0.03442363029322
  H          -0.34100835490305     -1.59174558729783      1.85462481453529
  H          -2.80208185399823     -1.50697225674524      1.42411542498678
  H          -3.69668484652949     -0.04079456730400     -0.38915833809035
  H          -2.12197392079601      1.23951711013728     -1.83592561651550
  H           0.31337578524761      1.18764438503418     -1.39053972682128
