17
Coordinates from ORCA-job step7_irc_IRC_F E -744.219056529232
  C       2.889279      0.562309     -0.461640
  S       1.793583     -0.389283      0.613236
  O       2.335435     -1.367695      1.666996
  C       0.095126     -0.278629      0.230609
  C      -0.788550     -0.991591      1.063346
  C      -2.160696     -0.884319      0.841736
  C      -2.664253     -0.074275     -0.184233
  C      -1.773653      0.638905     -0.993787
  C      -0.393601      0.548112     -0.798852
  H       2.999579      0.157943     -1.480290
  H       2.533909      1.602597     -0.483856
  H       3.849140      0.514790      0.071570
  H      -0.385273     -1.619155      1.860234
  H      -2.846345     -1.445778      1.482429
  H      -3.741105     -0.000308     -0.351807
  H      -2.152936      1.273669     -1.799410
  H       0.284604      1.100521     -1.452668
17
Coordinates from ORCA-job step7_irc_IRC_F E -744.230305486745
  C       2.889098      0.559896     -0.460423
  S       1.789761     -0.306980      0.687072
  O       2.335216     -1.398347      1.635053
  C       0.098328     -0.297293      0.216544
  C      -0.788695     -0.995593      1.058618
  C      -2.160584     -0.884565      0.842292
  C      -2.663986     -0.073733     -0.184017
  C      -1.773875      0.639782     -0.993298
  C      -0.393584      0.543985     -0.802261
  H       3.001298      0.148946     -1.494872
  H       2.535957      1.589976     -0.486216
  H       3.846709      0.513444      0.067291
  H      -0.385166     -1.619533      1.858942
  H      -2.846660     -1.445485      1.482820
  H      -3.740726     -0.000143     -0.351529
  H      -2.153366      1.274308     -1.799391
  H       0.284517      1.099149     -1.453011
17
Coordinates from ORCA-job step7_irc_IRC_F E -744.240337243986
  C       2.889965      0.546314     -0.474095
  S       1.793834     -0.270057      0.739449
  O       2.330433     -1.407148      1.608900
  C       0.096637     -0.305139      0.207722
  C      -0.787052     -0.997704      1.054529
  C      -2.161059     -0.884795      0.842245
  C      -2.663154     -0.073736     -0.183668
  C      -1.774153      0.640370     -0.993526
  C      -0.392966      0.539912     -0.803097
  H       3.000375      0.147737     -1.491756
  H       2.534953      1.591120     -0.487542
  H       3.847925      0.512997      0.066724
  H      -0.384959     -1.620008      1.858464
  H      -2.846849     -1.445202      1.483080
  H      -3.740647      0.000011     -0.351367
  H      -2.153596      1.274633     -1.799137
  H       0.284556      1.098509     -1.453311
17
Coordinates from ORCA-job step7_irc_IRC_F E -744.250090619842
  C       2.889754      0.539505     -0.479826
  S       1.796480     -0.225149      0.794096
  O       2.325664     -1.419450      1.580919
  C       0.097542     -0.313626      0.199466
  C      -0.785747     -1.000847      1.050378
  C      -2.161718     -0.885223      0.841864
  C      -2.662222     -0.073918     -0.183108
  C      -1.774393      0.640853     -0.994089
  C      -0.392310      0.535417     -0.804391
  H       2.999146      0.142878     -1.493588
  H       2.535649      1.587073     -0.489586
  H       3.848063      0.512320      0.064176
  H      -0.384819     -1.620165      1.857304
  H      -2.847140     -1.444873      1.483458
  H      -3.740365      0.000249     -0.351092
  H      -2.153948      1.275105     -1.798863
  H       0.284608      1.097664     -1.453504
17
Coordinates from ORCA-job step7_irc_IRC_F E -744.257617354485
  C       2.888003      0.538225     -0.475674
  S       1.801130     -0.184038      0.849004
  O       2.317813     -1.427725      1.548066
  C       0.100803     -0.319786      0.196378
  C      -0.785056     -1.004090      1.043913
  C      -2.160993     -0.887261      0.841747
  C      -2.661629     -0.073371     -0.183504
  C      -1.774032      0.639911     -0.994669
  C      -0.391902      0.530911     -0.807421
  H       2.995871      0.133677     -1.497861
  H       2.537930      1.581452     -0.493360
  H       3.848022      0.511548      0.059366
  H      -0.384344     -1.620429      1.856024
  H      -2.847711     -1.444406      1.483990
  H      -3.739575      0.000680     -0.350470
  H      -2.154607      1.276019     -1.798784
  H       0.284519      1.096497     -1.453132
17
Coordinates from ORCA-job step7_irc_IRC_F E -744.262244627050
  C       2.883757      0.533047     -0.473127
  S       1.803880     -0.146824      0.897753
  O       2.308206     -1.434146      1.511513
  C       0.107045     -0.315536      0.197385
  C      -0.781459     -1.010500      1.039067
  C      -2.162231     -0.889537      0.837723
  C      -2.659717     -0.074886     -0.181779
  C      -1.773616      0.638176     -0.998245
  C      -0.389102      0.523070     -0.807928
  H       2.986297      0.122276     -1.490253
  H       2.541010      1.581017     -0.499634
  H       3.851736      0.511298      0.053634
  H      -0.384241     -1.619919      1.852898
  H      -2.848240     -1.443892      1.484817
  H      -3.738896      0.001860     -0.349371
  H      -2.155138      1.276694     -1.798002
  H       0.284951      1.095618     -1.452836
17
Coordinates from ORCA-job step7_irc_IRC_F E -744.265062006117
  C       2.877985      0.538445     -0.456213
  S       1.806123     -0.123895      0.924452
  O       2.297488     -1.437695      1.477076
  C       0.112213     -0.302970      0.209885
  C      -0.778681     -1.012991      1.032770
  C      -2.158373     -0.896375      0.833773
  C      -2.658193     -0.075544     -0.183678
  C      -1.770663      0.631813     -1.001734
  C      -0.386688      0.520266     -0.810206
  H       2.967161      0.102373     -1.475828
  H       2.547571      1.582386     -0.510120
  H       3.855358      0.511313      0.044474
  H      -0.382804     -1.621340      1.850468
  H      -2.847770     -1.443378      1.484632
  H      -3.737327      0.004190     -0.347010
  H      -2.155002      1.276737     -1.797375
  H       0.285847      1.094478     -1.451752
17
Coordinates from ORCA-job step7_irc_IRC_F E -744.267429111171
  C       2.871814      0.542348     -0.446130
  S       1.805878     -0.108933      0.938945
  O       2.288735     -1.443988      1.445539
  C       0.114148     -0.284232      0.222162
  C      -0.774448     -1.011859      1.032084
  C      -2.154003     -0.903017      0.827542
  C      -2.654857     -0.079707     -0.186463
  C      -1.767861      0.624980     -1.006578
  C      -0.383953      0.522266     -0.808831
  H       2.936342      0.077193     -1.445723
  H       2.555288      1.592076     -0.523121
  H       3.860802      0.512184      0.036819
  H      -0.380040     -1.623717      1.847277
  H      -2.844660     -1.444337      1.482199
  H      -3.734335      0.007594     -0.343602
  H      -2.153159      1.274216     -1.797246
  H       0.288551      1.094747     -1.451262
17
Coordinates from ORCA-job step7_irc_IRC_F E -744.269429444554
  C       2.864678      0.550459     -0.432040
  S       1.805776     -0.098252      0.951372
  O       2.282713     -1.452406      1.416221
  C       0.116333     -0.267106      0.232491
  C      -0.770333     -1.007328      1.034109
  C      -2.149405     -0.907806      0.823663
  C      -2.650857     -0.084658     -0.190933
  C      -1.764889      0.620878     -1.010415
  C      -0.381785      0.528988     -0.806041
  H       2.899858      0.046914     -1.416990
  H       2.564356      1.601299     -0.537412
  H       3.862456      0.513322      0.029584
  H      -0.375338     -1.625615      1.844324
  H      -2.839733     -1.448662      1.477707
  H      -3.730515      0.010027     -0.340592
  H      -2.151210      1.270110     -1.800696
  H       0.292138      1.097649     -1.450738
17
Coordinates from ORCA-job step7_irc_IRC_F E -744.270996063348
  C       2.856570      0.554243     -0.423830
  S       1.805931     -0.091664      0.964353
  O       2.279889     -1.459810      1.388926
  C       0.117767     -0.250257      0.242391
  C      -0.765593     -1.002078      1.036100
  C      -2.144408     -0.910031      0.820229
  C      -2.646455     -0.087339     -0.193236
  C      -1.761401      0.619669     -1.013664
  C      -0.378625      0.536473     -0.802282
  H       2.861526      0.018677     -1.386131
  H       2.571190      1.608974     -0.551295
  H       3.861793      0.513760      0.023919
  H      -0.369549     -1.624722      1.841510
  H      -2.834002     -1.455903      1.471962
  H      -3.726465      0.009539     -0.339971
  H      -2.149260      1.264502     -1.806551
  H       0.295335      1.103782     -1.448816
17
Coordinates from ORCA-job step7_irc_IRC_F E -744.271542915626
  C       2.851865      0.555460     -0.418793
  S       1.806791     -0.089287      0.969463
  O       2.279563     -1.462671      1.377931
  C       0.119163     -0.242638      0.245646
  C      -0.763933     -0.999505      1.037886
  C      -2.142724     -0.910184      0.818547
  C      -2.644500     -0.088608     -0.193616
  C      -1.760158      0.620134     -1.014978
  C      -0.377139      0.540454     -0.799690
  H       2.845278      0.006918     -1.374600
  H       2.572745      1.610374     -0.557325
  H       3.860443      0.513104      0.021133
  H      -0.366620     -1.623576      1.840718
  H      -2.831101     -1.459713      1.468781
  H      -3.724386      0.008357     -0.340765
  H      -2.147943      1.261415     -1.809402
  H       0.296898      1.107779     -1.447322
17
Coordinates from ORCA-job step7_irc_IRC_F E -744.271695109633
  C       2.850896      0.555730     -0.417918
  S       1.806877     -0.088720      0.970762
  O       2.279550     -1.463409      1.375239
  C       0.119290     -0.241404      0.247496
  C      -0.763522     -0.998225      1.037590
  C      -2.141712     -0.910755      0.818871
  C      -2.644043     -0.088263     -0.194535
  C      -1.759734      0.619825     -1.014684
  C      -0.376847      0.542081     -0.799749
  H       2.841165      0.004043     -1.371618
  H       2.572941      1.610548     -0.558768
  H       3.859976      0.512865      0.020393
  H      -0.365810     -1.623330      1.840734
  H      -2.830362     -1.460663      1.467864
  H      -3.723873      0.007923     -0.341051
  H      -2.147678      1.260783     -1.810338
  H       0.297129      1.108786     -1.446676
17
Coordinates from ORCA-job step7_irc_IRC_F E -744.271998075084
  C       2.848480      0.556214     -0.415861
  S       1.807151     -0.087472      0.973768
  O       2.279554     -1.465105      1.369110
  C       0.119769     -0.237621      0.250650
  C      -0.762449     -0.996005      1.037868
  C      -2.140063     -0.911384      0.818732
  C      -2.642882     -0.088276     -0.195679
  C      -1.758740      0.619716     -1.014702
  C      -0.376044      0.545127     -0.798868
  H       2.831711     -0.002593     -1.364896
  H       2.573270      1.610982     -0.562104
  H       3.858964      0.512268      0.018699
  H      -0.364044     -1.622501      1.840536
  H      -2.828645     -1.462947      1.465809
  H      -3.722686      0.006888     -0.341827
  H      -2.146950      1.259153     -1.812286
  H       0.297845      1.111371     -1.445334
17
Coordinates from ORCA-job step7_irc_IRC_F E -744.272295327902
  C       2.845674      0.556539     -0.413641
  S       1.807582     -0.086192      0.977003
  O       2.279594     -1.466919      1.362613
  C       0.120420     -0.232787      0.253222
  C      -0.761121     -0.994113      1.038950
  C      -2.138929     -0.911532      0.817887
  C      -2.641458     -0.088886     -0.196223
  C      -1.757703      0.620044     -1.015185
  C      -0.375052      0.547941     -0.797059
  H       2.821535     -0.009738     -1.357848
  H       2.573379      1.611393     -0.565711
  H       3.857894      0.511528      0.016829
  H      -0.362199     -1.621348      1.840203
  H      -2.826744     -1.465509      1.463583
  H      -3.721373      0.005643     -0.342859
  H      -2.146035      1.257262     -1.814247
  H       0.298777      1.114488     -1.443905
17
Coordinates from ORCA-job step7_irc_IRC_F E -744.272572416015
  C       2.842997      0.556756     -0.411782
  S       1.808087     -0.085077      0.980147
  O       2.279613     -1.468586      1.356431
  C       0.121001     -0.228481      0.256381
  C      -0.760063     -0.991830      1.039648
  C      -2.137223     -0.911899      0.817399
  C      -2.640232     -0.089245     -0.197146
  C      -1.756569      0.620298     -1.015435
  C      -0.374087      0.551218     -0.795641
  H       2.811679     -0.016538     -1.351079
  H       2.573174      1.611434     -0.569169
  H       3.856685      0.510686      0.014840
  H      -0.360335     -1.620180      1.840136
  H      -2.824964     -1.468100      1.461355
  H      -3.720026      0.004200     -0.344107
  H      -2.145076      1.255462     -1.816203
  H       0.299584      1.117696     -1.442162
17
Coordinates from ORCA-job step7_irc_IRC_F E -744.272845176187
  C       2.840140      0.556801     -0.409819
  S       1.808625     -0.083835      0.983285
  O       2.279689     -1.470434      1.350290
  C       0.121694     -0.223625      0.259218
  C      -0.758736     -0.989704      1.040786
  C      -2.136083     -0.912204      0.816780
  C      -2.638763     -0.089749     -0.198020
  C      -1.755322      0.620598     -1.015618
  C      -0.373189      0.554334     -0.793631
  H       2.801630     -0.023502     -1.344462
  H       2.572693      1.611390     -0.572718
  H       3.855448      0.509737      0.012687
  H      -0.358482     -1.618788      1.840069
  H      -2.822989     -1.470730      1.458921
  H      -3.718630      0.002535     -0.345585
  H      -2.144049      1.253673     -1.818252
  H       0.300566      1.121315     -1.440319
17
Coordinates from ORCA-job step7_irc_IRC_F E -744.273088587503
  C       2.837353      0.556713     -0.408389
  S       1.809314     -0.083025      0.986437
  O       2.279615     -1.471896      1.344401
  C       0.122251     -0.219218      0.262588
  C      -0.757732     -0.987297      1.041693
  C      -2.134229     -0.912355      0.816052
  C      -2.637487     -0.090397     -0.198850
  C      -1.754228      0.621146     -1.015993
  C      -0.371955      0.557914     -0.791949
  H       2.791878     -0.030091     -1.338019
  H       2.571925      1.610973     -0.576139
  H       3.854140      0.508704      0.010391
  H      -0.356628     -1.617345      1.840245
  H      -2.821281     -1.473515      1.456625
  H      -3.717188      0.000673     -0.347336
  H      -2.142852      1.251836     -1.820077
  H       0.301347      1.124994     -1.438065
17
Coordinates from ORCA-job step7_irc_IRC_F E -744.273325783000
  C       2.834516      0.556455     -0.406766
  S       1.809970     -0.081863      0.989394
  O       2.279625     -1.473729      1.338834
  C       0.122960     -0.214383      0.265600
  C      -0.756548     -0.985025      1.042940
  C      -2.133042     -0.912687      0.815488
  C      -2.635991     -0.090994     -0.199891
  C      -1.752864      0.621546     -1.016035
  C      -0.371040      0.561261     -0.789685
  H       2.782210     -0.036713     -1.332084
  H       2.570844      1.610458     -0.579579
  H       3.852803      0.507589      0.007882
  H      -0.354840     -1.615731      1.840520
  H      -2.819339     -1.476183      1.454072
  H      -3.715712     -0.001447     -0.349329
  H      -2.141654      1.250187     -1.822038
  H       0.302343      1.129075     -1.435711
17
Coordinates from ORCA-job step7_irc_IRC_F E -744.273542958412
  C       2.831555      0.556017     -0.405908
  S       1.810874     -0.081499      0.992627
  O       2.279335     -1.474861      1.333241
  C       0.123440     -0.209884      0.269225
  C      -0.755337     -0.982550      1.044175
  C      -2.131225     -0.912708      0.814563
  C      -2.634634     -0.091873     -0.200769
  C      -1.751768      0.622285     -1.016424
  C      -0.369598      0.565143     -0.787701
  H       2.772554     -0.043088     -1.325945
  H       2.569554      1.609624     -0.582994
  H       3.851496      0.506395      0.005226
  H      -0.353084     -1.613949      1.840888
  H      -2.817679     -1.479130      1.451673
  H      -3.714161     -0.003782     -0.351621
  H      -2.140224      1.248398     -1.823742
  H       0.303145      1.133274     -1.432904
17
Coordinates from ORCA-job step7_irc_IRC_F E -744.273745831282
  C       2.829001      0.555576     -0.404387
  S       1.811497     -0.080063      0.995115
  O       2.279325     -1.476954      1.328637
  C       0.124234     -0.205168      0.272069
  C      -0.754496     -0.980301      1.045459
  C      -2.130249     -0.913135      0.814130
  C      -2.633064     -0.092557     -0.201926
  C      -1.750377      0.622697     -1.016265
  C      -0.368736      0.568391     -0.785138
  H       2.763748     -0.049178     -1.321195
  H       2.568025      1.608767     -0.586197
  H       3.850095      0.505225      0.002397
  H      -0.351457     -1.612278      1.841558
  H      -2.815801     -1.481615      1.449085
  H      -3.712716     -0.006245     -0.354011
  H      -2.138940      1.247055     -1.825525
  H       0.304154      1.137597     -1.430191
17
Coordinates from ORCA-job step7_irc_IRC_F E -744.273938735491
  C       2.826097      0.554786     -0.404077
  S       1.812435     -0.079640      0.998171
  O       2.278903     -1.478187      1.323799
  C       0.124675     -0.200649      0.275671
  C      -0.753083     -0.977870      1.047009
  C      -2.128744     -0.913361      0.813397
  C      -2.631621     -0.093381     -0.203220
  C      -1.748821      0.623384     -1.016294
  C      -0.367831      0.572188     -0.782650
  H       2.754633     -0.055090     -1.315811
  H       2.566247      1.607533     -0.589486
  H       3.848807      0.503939     -0.000668
  H      -0.349946     -1.610215      1.842172
  H      -2.814144     -1.484479      1.446543
  H      -3.711129     -0.009077     -0.356816
  H      -2.137401      1.245574     -1.827129
  H       0.305163      1.142358     -1.426998
17
Coordinates from ORCA-job step7_irc_IRC_F E -744.274120054492
  C       2.823302      0.553993     -0.403044
  S       1.813383     -0.078757      1.000789
  O       2.278495     -1.479825      1.319431
  C       0.125465     -0.195784      0.279021
  C      -0.752331     -0.975407      1.048526
  C      -2.127548     -0.913710      0.812755
  C      -2.630077     -0.094406     -0.204471
  C      -1.747444      0.624011     -1.016144
  C      -0.366527      0.576033     -0.779875
  H       2.745672     -0.061197     -1.311375
  H       2.564206      1.606270     -0.592838
  H       3.847424      0.502606     -0.004079
  H      -0.348362     -1.608243      1.843235
  H      -2.812313     -1.487195      1.443776
  H      -3.709420     -0.012177     -0.359903
  H      -2.135800      1.244326     -1.828774
  H       0.306116      1.147277     -1.423413
17
Coordinates from ORCA-job step7_irc_IRC_F E -744.274294637205
  C       2.820559      0.552991     -0.403091
  S       1.814327     -0.078088      1.003628
  O       2.277927     -1.481290      1.315338
  C       0.125865     -0.191341      0.282843
  C      -0.751035     -0.972877      1.050219
  C      -2.125970     -0.913960      0.811977
  C      -2.628468     -0.095428     -0.205934
  C      -1.745876      0.624864     -1.016138
  C      -0.365596      0.579986     -0.777007
  H       2.736927     -0.066850     -1.306781
  H       2.562014      1.604614     -0.596086
  H       3.846046      0.501233     -0.007692
  H      -0.347034     -1.605979      1.844222
  H      -2.810787     -1.490122      1.441172
  H      -3.707819     -0.015527     -0.363307
  H      -2.134027      1.243052     -1.830110
  H       0.307189      1.152535     -1.419639
17
Coordinates from ORCA-job step7_irc_IRC_F E -744.274456277230
  C       2.817715      0.551836     -0.402416
  S       1.815457     -0.077410      1.006054
  O       2.277218     -1.482686      1.311692
  C       0.126719     -0.186471      0.286269
  C      -0.750525     -0.970374      1.051846
  C      -2.124951     -0.914388      0.811330
  C      -2.626972     -0.096681     -0.207320
  C      -1.744417      0.625506     -1.015763
  C      -0.364174      0.584014     -0.773983
  H       2.728426     -0.072653     -1.303189
  H       2.559613      1.603138     -0.599423
  H       3.844820      0.499826     -0.011545
  H      -0.345599     -1.603915      1.845741
  H      -2.808989     -1.492773      1.438271
  H      -3.705935     -0.019133     -0.366927
  H      -2.132282      1.242163     -1.831606
  H       0.308120      1.157816     -1.415418
17
Coordinates from ORCA-job step7_irc_IRC_F E -744.274618756045
  C       2.815251      0.550699     -0.403144
  S       1.816430     -0.076794      1.008762
  O       2.276416     -1.484026      1.308445
  C       0.126912     -0.182321      0.290218
  C      -0.749090     -0.967992      1.053846
  C      -2.123280     -0.914612      0.810455
  C      -2.625259     -0.097833     -0.208964
  C      -1.742826      0.626577     -1.015811
  C      -0.363404      0.587946     -0.770818
  H       2.720337     -0.077781     -1.299347
  H       2.557200      1.601037     -0.602517
  H       3.843400      0.498410     -0.015592
  H      -0.344630     -1.601401      1.846866
  H      -2.807742     -1.495736      1.435765
  H      -3.704415     -0.022892     -0.370820
  H      -2.130314      1.241108     -1.832507
  H       0.309256      1.163425     -1.411225
17
Coordinates from ORCA-job step7_irc_IRC_F E -744.274765825688
  C       2.812339      0.549139     -0.402590
  S       1.817657     -0.076183      1.010762
  O       2.275484     -1.485175      1.305713
  C       0.127958     -0.177547      0.293446
  C      -0.749032     -0.965503      1.055339
  C      -2.122737     -0.915128      0.809813
  C      -2.623957     -0.099355     -0.210290
  C      -1.741343      0.627099     -1.015107
  C      -0.361813      0.591951     -0.767678
  H       2.712636     -0.083151     -1.296857
  H       2.554627      1.599654     -0.605774
  H       3.842535      0.496989     -0.019659
  H      -0.343320     -1.599516      1.848920
  H      -2.805950     -1.498120      1.432773
  H      -3.702339     -0.026812     -0.374747
  H      -2.128578      1.240735     -1.833905
  H       0.310078      1.168738     -1.406545
17
Coordinates from ORCA-job step7_irc_IRC_F E -744.274898197554
  C       2.810568      0.548170     -0.404143
  S       1.818497     -0.075620      1.013307
  O       2.274571     -1.486303      1.303440
  C       0.127752     -0.174039      0.297263
  C      -0.747369     -0.963588      1.057686
  C      -2.120726     -0.915266      0.808874
  C      -2.622137     -0.100447     -0.212065
  C      -1.739882      0.628483     -1.015449
  C      -0.361411      0.595493     -0.764392
  H       2.705645     -0.087404     -1.293722
  H       2.552323      1.597087     -0.608480
  H       3.840938      0.495616     -0.023852
  H      -0.342882     -1.596804      1.849823
  H      -2.805199     -1.501055      1.430658
  H      -3.701182     -0.030633     -0.378806
  H      -2.126508      1.239805     -1.834142
  H       0.311243      1.174317     -1.402388
17
Coordinates from ORCA-job step7_irc_IRC_F E -744.274928741038
  C       2.809575      0.547536     -0.403861
  S       1.818919     -0.075436      1.013720
  O       2.274241     -1.486551      1.302880
  C       0.128194     -0.172640      0.298129
  C      -0.747574     -0.962803      1.057968
  C      -2.120847     -0.915471      0.808703
  C      -2.621886     -0.101000     -0.212387
  C      -1.739426      0.628518     -1.015049
  C      -0.360848      0.596695     -0.763507
  H       2.703590     -0.088918     -1.293343
  H       2.551540      1.596837     -0.609452
  H       3.840893      0.495192     -0.025052
  H      -0.342466     -1.596399      1.850659
  H      -2.804600     -1.501620      1.429699
  H      -3.700432     -0.031850     -0.379997
  H      -2.126050      1.239902     -1.834617
  H       0.311420      1.175824     -1.400879
17
Coordinates from ORCA-job step7_irc_IRC_F E -744.275000610727
  C       2.808355      0.546747     -0.404032
  S       1.819487     -0.075109      1.014646
  O       2.273708     -1.487016      1.301977
  C       0.128492     -0.170854      0.300074
  C      -0.747386     -0.961516      1.058595
  C      -2.120309     -0.915904      0.808597
  C      -2.621260     -0.101493     -0.213436
  C      -1.738679      0.628741     -1.014579
  C      -0.360391      0.598742     -0.762149
  H       2.700219     -0.091199     -1.292386
  H       2.550307      1.595962     -0.610933
  H       3.840456      0.494485     -0.027158
  H      -0.342025     -1.595425      1.851670
  H      -2.803917     -1.502784      1.428333
  H      -3.699488     -0.033883     -0.382037
  H      -2.125162      1.239843     -1.835076
  H       0.311839      1.178477     -1.398492
17
Coordinates from ORCA-job step7_irc_IRC_F E -744.275075394506
  C       2.807158      0.545962     -0.404585
  S       1.820043     -0.074770      1.015800
  O       2.273116     -1.487526      1.301039
  C       0.128623     -0.168787      0.302084
  C      -0.746819     -0.960343      1.059687
  C      -2.119652     -0.916099      0.808127
  C      -2.620350     -0.102238     -0.214384
  C      -1.737916      0.629294     -1.014427
  C      -0.359902      0.600808     -0.760322
  H       2.696507     -0.093608     -1.291194
  H       2.548961      1.594761     -0.612524
  H       3.839830      0.493685     -0.029573
  H      -0.341703     -1.594124      1.852554
  H      -2.803333     -1.504238      1.426964
  H      -3.698626     -0.036161     -0.384402
  H      -2.124072      1.239643     -1.835339
  H       0.312378      1.181556     -1.395893
17
Coordinates from ORCA-job step7_irc_IRC_F E -744.275142041794
  C       2.805862      0.545057     -0.404835
  S       1.820684     -0.074416      1.016783
  O       2.272489     -1.487967      1.300235
  C       0.129026     -0.166573      0.303917
  C      -0.746808     -0.959106      1.060554
  C      -2.119147     -0.916466      0.807836
  C      -2.619706     -0.103059     -0.215277
  C      -1.737018      0.629695     -1.014045
  C      -0.359288      0.602939     -0.758583
  H       2.692884     -0.096073     -1.290305
  H       2.547598      1.593752     -0.614163
  H       3.839336      0.492875     -0.031980
  H      -0.341259     -1.593039      1.853719
  H      -2.802585     -1.505513      1.425439
  H      -3.697570     -0.038470     -0.386752
  H      -2.123072      1.239645     -1.835766
  H       0.312818      1.184532     -1.393163
17
Coordinates from ORCA-job step7_irc_IRC_F E -744.275207632478
  C       2.804699      0.544230     -0.405496
  S       1.821244     -0.074057      1.017888
  O       2.271865     -1.488396      1.299516
  C       0.129118     -0.164660      0.305978
  C      -0.746235     -0.957962      1.061634
  C      -2.118432     -0.916667      0.807355
  C      -2.618859     -0.103790     -0.216285
  C      -1.736243      0.630273     -1.013880
  C      -0.358934      0.604976     -0.756761
  H       2.689351     -0.098370     -1.289299
  H       2.546280      1.592535     -0.615730
  H       3.838760      0.492053     -0.034424
  H      -0.341008     -1.591746      1.854625
  H      -2.802082     -1.506972      1.424115
  H      -3.696685     -0.040795     -0.389158
  H      -2.121974      1.239517     -1.835926
  H       0.313376      1.187644     -1.390540
