17
Coordinates from ORCA-job step7_irc_IRC_Full E -744.275571886912
  C       2.798157      0.563266     -0.387254
  S       1.889976     -0.880140      0.318242
  O       2.195956     -0.937718      1.797045
  C       0.143695     -0.334423      0.156068
  C      -0.734535     -0.982388      1.035464
  C      -2.113887     -0.842941      0.866718
  C      -2.618544     -0.041115     -0.163387
  C      -1.738054      0.651637     -0.999656
  C      -0.353194      0.505703     -0.847379
  H       2.925291      0.412361     -1.469979
  H       2.322042      1.527083     -0.162277
  H       3.775637      0.497746      0.111830
  H      -0.323493     -1.596721      1.840823
  H      -2.798119     -1.375197      1.533364
  H      -3.698089      0.041518     -0.314943
  H      -2.130202      1.304439     -1.784653
  H       0.319759      1.052212     -1.512449
17
Coordinates from ORCA-job step7_irc_IRC_Full E -744.275508982507
  C       2.799472      0.562825     -0.388235
  S       1.889319     -0.879531      0.318020
  O       2.196989     -0.938631      1.796398
  C       0.143039     -0.332360      0.157581
  C      -0.734938     -0.981491      1.036477
  C      -2.114448     -0.843389      0.866546
  C      -2.619089     -0.042181     -0.163753
  C      -1.738813      0.652188     -0.999238
  C      -0.353752      0.507665     -0.845598
  H       2.928430      0.409510     -1.470277
  H       2.324106      1.527579     -0.166217
  H       3.775848      0.497185      0.112754
  H      -0.324150     -1.595740      1.841667
  H      -2.798675     -1.376789      1.532383
  H      -3.698854      0.038938     -0.316656
  H      -2.131035      1.304347     -1.784353
  H       0.318951      1.055198     -1.509924
17
Coordinates from ORCA-job step7_irc_IRC_Full E -744.275441484314
  C       2.800459      0.562236     -0.388965
  S       1.888742     -0.878860      0.317789
  O       2.197884     -0.939478      1.795786
  C       0.142783     -0.330881      0.159258
  C      -0.735585     -0.980419      1.037022
  C      -2.114815     -0.843981      0.866665
  C      -2.619869     -0.042762     -0.164512
  C      -1.739418      0.652299     -0.998443
  C      -0.354634      0.509595     -0.844307
  H       2.931176      0.407044     -1.470701
  H       2.325882      1.528182     -0.169618
  H       3.776201      0.496717      0.113602
  H      -0.324610     -1.595057      1.842622
  H      -2.799132     -1.378137      1.531476
  H      -3.699193      0.036666     -0.318073
  H      -2.131817      1.304369     -1.784271
  H       0.318345      1.057789     -1.507758
17
Coordinates from ORCA-job step7_irc_IRC_Full E -744.275390141187
  C       2.801848      0.562346     -0.389940
  S       1.888192     -0.878549      0.317609
  O       2.198729     -0.940261      1.795313
  C       0.141861     -0.329231      0.160461
  C      -0.735832     -0.979773      1.037874
  C      -2.114890     -0.844475      0.866743
  C      -2.620088     -0.043570     -0.164790
  C      -1.739590      0.652738     -0.998161
  C      -0.355053      0.511138     -0.842966
  H       2.933512      0.404881     -1.470561
  H       2.327659      1.528343     -0.172708
  H       3.776077      0.496293      0.114143
  H      -0.325281     -1.594187      1.843141
  H      -2.799626     -1.379360      1.530692
  H      -3.700196      0.034723     -0.319455
  H      -2.132503      1.304277     -1.784112
  H       0.317581      1.059988     -1.505710
17
Coordinates from ORCA-job step7_irc_IRC_Full E -744.275273774470
  C       2.803709      0.560850     -0.391329
  S       1.886975     -0.876850      0.317116
  O       2.200810     -0.942537      1.793749
  C       0.141548     -0.325318      0.163603
  C      -0.737119     -0.977855      1.039821
  C      -2.116727     -0.844987      0.866036
  C      -2.621659     -0.045501     -0.165600
  C      -1.741697      0.653395     -0.997006
  C      -0.356546      0.514804     -0.839373
  H       2.939563      0.399491     -1.471792
  H       2.331824      1.530217     -0.180232
  H       3.777306      0.495347      0.116034
  H      -0.326458     -1.592682      1.845262
  H      -2.800765     -1.382473      1.528754
  H      -3.700755      0.029824     -0.322579
  H      -2.134006      1.303893     -1.783841
  H       0.316397      1.065703     -1.501047
17
Coordinates from ORCA-job step7_irc_IRC_Full E -744.275120059389
  C       2.806648      0.560685     -0.393257
  S       1.885611     -0.875597      0.316587
  O       2.203052     -0.945118      1.792238
  C       0.139961     -0.321242      0.167008
  C      -0.738116     -0.976013      1.041933
  C      -2.117626     -0.845996      0.866009
  C      -2.622770     -0.047383     -0.166412
  C      -1.742847      0.654234     -0.996124
  C      -0.357792      0.518603     -0.835855
  H       2.945408      0.394122     -1.472060
  H       2.336628      1.531567     -0.188006
  H       3.777810      0.494459      0.117424
  H      -0.328157     -1.590886      1.847040
  H      -2.802122     -1.385619      1.526682
  H      -3.702468      0.025054     -0.325892
  H      -2.135581      1.303336     -1.783709
  H       0.314759      1.071116     -1.496032
17
Coordinates from ORCA-job step7_irc_IRC_Full E -744.274971513777
  C       2.808819      0.559693     -0.394705
  S       1.884381     -0.873800      0.316010
  O       2.205261     -0.948009      1.790544
  C       0.139382     -0.317301      0.170517
  C      -0.739564     -0.974012      1.043905
  C      -2.119389     -0.846674      0.865584
  C      -2.624402     -0.049165     -0.167270
  C      -1.744683      0.654723     -0.994946
  C      -0.359310      0.522283     -0.832308
  H       2.951198      0.388859     -1.472967
  H       2.341399      1.533777     -0.195616
  H       3.779096      0.493717      0.118970
  H      -0.329646     -1.589540      1.849273
  H      -2.803418     -1.388737      1.524573
  H      -3.703186      0.020417     -0.328947
  H      -2.137020      1.302662     -1.783769
  H       0.313481      1.076430     -1.491274
17
Coordinates from ORCA-job step7_irc_IRC_Full E -744.274824934195
  C       2.811833      0.559932     -0.396450
  S       1.883062     -0.872420      0.315459
  O       2.207529     -0.951143      1.788923
  C       0.137558     -0.313412      0.174282
  C      -0.740458     -0.972246      1.046094
  C      -2.120157     -0.847616      0.865587
  C      -2.625518     -0.050810     -0.168109
  C      -1.745677      0.655433     -0.994136
  C      -0.360717      0.525853     -0.828812
  H       2.956608      0.383739     -1.473121
  H       2.346652      1.535555     -0.203240
  H       3.779809      0.493102      0.120003
  H      -0.331663     -1.587896      1.850975
  H      -2.805039     -1.391926      1.522528
  H      -3.704954      0.016083     -0.332063
  H      -2.138420      1.301737     -1.783873
  H       0.311951      1.081358     -1.486472
17
Coordinates from ORCA-job step7_irc_IRC_Full E -744.274668377578
  C       2.814188      0.559224     -0.398150
  S       1.881829     -0.870399      0.314834
  O       2.209823     -0.954767      1.787148
  C       0.137024     -0.309310      0.177963
  C      -0.742322     -0.970310      1.048273
  C      -2.122063     -0.848419      0.865388
  C      -2.627065     -0.052451     -0.168924
  C      -1.747525      0.655808     -0.993010
  C      -0.362208      0.529428     -0.825214
  H       2.962049      0.378588     -1.473617
  H       2.352052      1.538430     -0.210950
  H       3.781446      0.492669      0.121251
  H      -0.333459     -1.586796      1.853310
  H      -2.806461     -1.395053      1.520177
  H      -3.705828      0.011794     -0.334993
  H      -2.139722      1.300682     -1.784233
  H       0.310642      1.086206     -1.481678
17
Coordinates from ORCA-job step7_irc_IRC_Full E -744.274502172586
  C       2.817128      0.559633     -0.399621
  S       1.880521     -0.868644      0.314291
  O       2.212149     -0.958702      1.785319
  C       0.135455     -0.305315      0.182041
  C      -0.743567     -0.968486      1.050571
  C      -2.123318     -0.849264      0.865299
  C      -2.628424     -0.054006     -0.169689
  C      -1.748754      0.656271     -0.992082
  C      -0.363693      0.532886     -0.821567
  H       2.967210      0.373422     -1.473850
  H       2.358003      1.541059     -0.218814
  H       3.782751      0.492403      0.122031
  H      -0.335704     -1.585532      1.855277
  H      -2.808246     -1.398352      1.517910
  H      -3.707335      0.007769     -0.337928
  H      -2.140994      1.299404     -1.784706
  H       0.309217      1.090777     -1.476908
17
Coordinates from ORCA-job step7_irc_IRC_Full E -744.274327970247
  C       2.819781      0.559582     -0.401226
  S       1.879310     -0.866555      0.313724
  O       2.214413     -0.962991      1.783502
  C       0.134495     -0.301253      0.186013
  C      -0.745321     -0.966707      1.052884
  C      -2.125053     -0.850056      0.865169
  C      -2.629908     -0.055480     -0.170394
  C      -1.750305      0.656601     -0.991117
  C      -0.365199      0.536206     -0.817954
  H       2.972092      0.368394     -1.474000
  H       2.364042      1.544397     -0.226556
  H       3.784567      0.492363      0.122804
  H      -0.337890     -1.584612      1.857458
  H      -2.809946     -1.401566      1.515511
  H      -3.708477      0.004000     -0.340650
  H      -2.142124      1.297956     -1.785309
  H       0.307922      1.095045     -1.472282
17
Coordinates from ORCA-job step7_irc_IRC_Full E -744.274147616010
  C       2.822612      0.560561     -0.402210
  S       1.878096     -0.864586      0.313291
  O       2.216631     -0.967568      1.781595
  C       0.132956     -0.297331      0.190237
  C      -0.746710     -0.964972      1.055193
  C      -2.126472     -0.850813      0.865034
  C      -2.631378     -0.056859     -0.171020
  C      -1.751522      0.656881     -0.990211
  C      -0.366657      0.539353     -0.814319
  H       2.976671      0.363323     -1.474262
  H       2.370566      1.547509     -0.234385
  H       3.786270      0.492523      0.123179
  H      -0.340330     -1.583729      1.859440
  H      -2.811880     -1.404870      1.513162
  H      -3.709861      0.000538     -0.343267
  H      -2.143209      1.296369     -1.786085
  H       0.306616      1.098995     -1.467796
17
Coordinates from ORCA-job step7_irc_IRC_Full E -744.273960571384
  C       2.825415      0.560880     -0.403792
  S       1.876937     -0.862319      0.312797
  O       2.218798     -0.972542      1.779806
  C       0.131911     -0.293398      0.194455
  C      -0.748596     -0.963291      1.057506
  C      -2.128201     -0.851657      0.865040
  C      -2.632871     -0.058076     -0.171690
  C      -1.752941      0.657066     -0.989302
  C      -0.368185      0.542445     -0.810832
  H       2.980856      0.358413     -1.474002
  H       2.377116      1.551553     -0.242093
  H       3.788463      0.492952      0.123531
  H      -0.342754     -1.583152      1.861551
  H      -2.813726     -1.408085      1.510653
  H      -3.711061     -0.002649     -0.345683
  H      -2.144143      1.294583     -1.786944
  H       0.305382      1.102600     -1.463426
17
Coordinates from ORCA-job step7_irc_IRC_Full E -744.273760923256
  C       2.828139      0.562395     -0.404371
  S       1.875819     -0.860177      0.312523
  O       2.220857     -0.977699      1.777901
  C       0.130414     -0.289583      0.198704
  C      -0.750065     -0.961719      1.059821
  C      -2.129745     -0.852350      0.864886
  C      -2.634352     -0.059271     -0.172153
  C      -1.754127      0.657212     -0.988489
  C      -0.369527      0.545238     -0.807271
  H       2.984709      0.353442     -1.474149
  H       2.384091      1.555132     -0.249808
  H       3.790541      0.493568      0.123501
  H      -0.345339     -1.582638      1.863444
  H      -2.815760     -1.411352      1.508262
  H      -3.712412     -0.005491     -0.347951
  H      -2.145031      1.292736     -1.787959
  H       0.304189      1.105881     -1.459317
17
Coordinates from ORCA-job step7_irc_IRC_Full E -744.273575699139
  C       2.830685      0.562570     -0.405994
  S       1.874922     -0.858055      0.312101
  O       2.222588     -0.982456      1.776489
  C       0.129523     -0.286555      0.202801
  C      -0.751544     -0.960279      1.061587
  C      -2.131531     -0.853300      0.865232
  C      -2.635316     -0.059811     -0.173052
  C      -1.755584      0.656986     -0.987425
  C      -0.370783      0.547933     -0.804767
  H       2.987634      0.349375     -1.473345
  H       2.389933      1.559362     -0.256309
  H       3.792751      0.494329      0.123525
  H      -0.347527     -1.582448      1.865211
  H      -2.817295     -1.413986      1.505948
  H      -3.713524     -0.007761     -0.349746
  H      -2.145676      1.291044     -1.788920
  H       0.303144      1.108375     -1.455760
17
Coordinates from ORCA-job step7_irc_IRC_Full E -744.273450948121
  C       2.831815      0.562261     -0.406864
  S       1.874435     -0.856562      0.311891
  O       2.223648     -0.985590      1.775510
  C       0.129874     -0.284126      0.204912
  C      -0.753098     -0.959609      1.062917
  C      -2.133197     -0.853318      0.864775
  C      -2.636481     -0.060562     -0.173209
  C      -1.756855      0.657070     -0.987002
  C      -0.371854      0.549239     -0.802809
  H       2.989477      0.346753     -1.473098
  H       2.393630      1.562516     -0.260441
  H       3.794609      0.494884      0.123690
  H      -0.348696     -1.582595      1.866621
  H      -2.818282     -1.415758      1.504560
  H      -3.713483     -0.009155     -0.350741
  H      -2.145942      1.289801     -1.789404
  H       0.302800      1.110073     -1.453731
17
Coordinates from ORCA-job step7_irc_IRC_Full E -744.273027458892
  C       2.837502      0.567542     -0.407001
  S       1.872425     -0.852181      0.312034
  O       2.227212     -0.997090      1.772164
  C       0.125745     -0.277641      0.213048
  C      -0.755435     -0.956984      1.067318
  C      -2.135252     -0.855030      0.864925
  C      -2.638769     -0.062163     -0.173679
  C      -1.757911      0.657043     -0.985909
  C      -0.373806      0.553631     -0.796344
  H       2.994125      0.337273     -1.472280
  H       2.408176      1.570127     -0.274790
  H       3.798991      0.497450      0.122226
  H      -0.354252     -1.582193      1.869067
  H      -2.822440     -1.421731      1.499934
  H      -3.717013     -0.012644     -0.354166
  H      -2.147266      1.285772     -1.791940
  H       0.300367      1.114140     -1.447032
17
Coordinates from ORCA-job step7_irc_IRC_Full E -744.272520269497
  C       2.842581      0.570045     -0.408587
  S       1.870911     -0.846925      0.312140
  O       2.230726     -1.010056      1.769045
  C       0.124195     -0.270253      0.221377
  C      -0.759438     -0.954954      1.071538
  C      -2.139222     -0.856155      0.864446
  C      -2.641809     -0.063703     -0.174117
  C      -1.760426      0.656788     -0.984811
  C      -0.376685      0.557542     -0.790411
  H       2.997145      0.327734     -1.469565
  H       2.423059      1.581517     -0.289368
  H       3.805289      0.501044      0.120921
  H      -0.359266     -1.583061      1.872299
  H      -2.826329     -1.427629      1.495010
  H      -3.718990     -0.015352     -0.356872
  H      -2.147973      1.281121     -1.794355
  H       0.298631      1.117620     -1.441115
17
Coordinates from ORCA-job step7_irc_IRC_Full E -744.271979563684
  C       2.847386      0.575623     -0.408156
  S       1.869579     -0.841976      0.312923
  O       2.234068     -1.022853      1.766120
  C       0.121612     -0.264588      0.229222
  C      -0.763024     -0.952493      1.075136
  C      -2.141215     -0.857733      0.864557
  C      -2.644794     -0.064807     -0.174910
  C      -1.761267      0.656276     -0.983856
  C      -0.379119      0.561137     -0.785012
  H       2.998526      0.318089     -1.467438
  H       2.437765      1.591076     -0.302910
  H       3.810841      0.504806      0.119049
  H      -0.364107     -1.584023      1.874410
  H      -2.830280     -1.433095      1.490680
  H      -3.721382     -0.016972     -0.358911
  H      -2.148839      1.277010     -1.797076
  H       0.296649      1.119848     -1.436255
17
Coordinates from ORCA-job step7_irc_IRC_Full E -744.271793792167
  C       2.848725      0.578310     -0.407304
  S       1.869191     -0.840672      0.313295
  O       2.235047     -1.026590      1.765183
  C       0.120417     -0.263088      0.231526
  C      -0.763869     -0.951675      1.076133
  C      -2.141335     -0.858302      0.864711
  C      -2.645693     -0.065059     -0.175210
  C      -1.761191      0.656113     -0.983610
  C      -0.379671      0.562171     -0.783386
  H       2.998871      0.315093     -1.467233
  H       2.442312      1.593204     -0.306916
  H       3.812258      0.505895      0.118342
  H      -0.365600     -1.584248      1.874864
  H      -2.831564     -1.434738      1.489505
  H      -3.722301     -0.017364     -0.359500
  H      -2.149165      1.275872     -1.797949
  H       0.295969      1.120398     -1.434875
17
Coordinates from ORCA-job step7_irc_IRC_Full E -744.270456607227
  C       2.857293      0.585724     -0.406623
  S       1.866853     -0.829153      0.316744
  O       2.243949     -1.055599      1.760086
  C       0.117139     -0.249111      0.247430
  C      -0.770186     -0.949337      1.082278
  C      -2.148819     -0.861349      0.862336
  C      -2.650202     -0.067738     -0.176178
  C      -1.765419      0.653481     -0.983500
  C      -0.383754      0.566812     -0.775076
  H       2.993977      0.295508     -1.456243
  H       2.472117      1.618551     -0.334641
  H       3.824944      0.515416      0.114289
  H      -0.373753     -1.587628      1.877254
  H      -2.837925     -1.443419      1.481630
  H      -3.726804     -0.017290     -0.361593
  H      -2.149681      1.268198     -1.801876
  H       0.292669      1.122257     -1.428744
17
Coordinates from ORCA-job step7_irc_IRC_Full E -744.268652947700
  C       2.863271      0.600332     -0.400740
  S       1.865083     -0.817280      0.324167
  O       2.255835     -1.087010      1.755306
  C       0.112441     -0.235017      0.263937
  C      -0.776118     -0.945514      1.087471
  C      -2.153924     -0.866441      0.858546
  C      -2.654375     -0.073291     -0.180736
  C      -1.767991      0.649122     -0.985885
  C      -0.386633      0.571678     -0.767251
  H       2.984525      0.274699     -1.443578
  H       2.502112      1.640899     -0.363372
  H       3.836649      0.523766      0.108980
  H      -0.380267     -1.591669      1.876001
  H      -2.844008     -1.450291      1.476869
  H      -3.731923     -0.013692     -0.360744
  H      -2.151014      1.263695     -1.805383
  H       0.288736      1.121336     -1.426013
17
Coordinates from ORCA-job step7_irc_IRC_Full E -744.266405705520
  C       2.870224      0.611708     -0.398553
  S       1.861810     -0.801554      0.337350
  O       2.270327     -1.121054      1.753976
  C       0.107590     -0.217084      0.282353
  C      -0.781754     -0.946291      1.089295
  C      -2.159058     -0.874767      0.852209
  C      -2.657708     -0.076949     -0.184310
  C      -1.770397      0.643146     -0.991796
  C      -0.389619      0.573635     -0.764828
  H       2.974449      0.256435     -1.430022
  H       2.524580      1.665240     -0.389238
  H       3.846136      0.528153      0.104114
  H      -0.383862     -1.595779      1.874150
  H      -2.847893     -1.453733      1.476025
  H      -3.735914     -0.009535     -0.358571
  H      -2.152643      1.263449     -1.807817
  H       0.286130      1.120303     -1.426764
17
Coordinates from ORCA-job step7_irc_IRC_Full E -744.263659270225
  C       2.874510      0.626858     -0.397890
  S       1.854435     -0.770999      0.357784
  O       2.284990     -1.155624      1.755350
  C       0.099629     -0.201882      0.292310
  C      -0.784593     -0.953610      1.088351
  C      -2.163143     -0.880295      0.845729
  C      -2.659245     -0.078702     -0.184420
  C      -1.772280      0.639062     -0.996999
  C      -0.391693      0.570401     -0.766368
  H       2.968649      0.241541     -1.426374
  H       2.538589      1.675054     -0.406286
  H       3.851834      0.528207      0.100952
  H      -0.385606     -1.598319      1.873009
  H      -2.848490     -1.453948      1.476418
  H      -3.737954     -0.007012     -0.357099
  H      -2.152858      1.264197     -1.807710
  H       0.285626      1.120394     -1.429184
17
Coordinates from ORCA-job step7_irc_IRC_Full E -744.258927787986
  C       2.880261      0.628862     -0.402693
  S       1.843080     -0.717906      0.386245
  O       2.298561     -1.191748      1.755609
  C       0.092867     -0.200950      0.297194
  C      -0.788047     -0.959396      1.082475
  C      -2.161483     -0.884617      0.844354
  C      -2.661128     -0.077111     -0.186449
  C      -1.772684      0.635694     -0.997385
  C      -0.393370      0.568953     -0.774360
  H       2.966438      0.232670     -1.426113
  H       2.544998      1.678528     -0.416176
  H       3.852992      0.527317      0.098302
  H      -0.385728     -1.601107      1.874035
  H      -2.848088     -1.453092      1.476752
  H      -3.738888     -0.005909     -0.356340
  H      -2.152565      1.265224     -1.807241
  H       0.285182      1.119909     -1.430633
17
Coordinates from ORCA-job step7_irc_IRC_Full E -744.251123591852
  C       2.881622      0.631419     -0.405154
  S       1.830419     -0.658461      0.419065
  O       2.309489     -1.224375      1.752027
  C       0.090152     -0.204948      0.291512
  C      -0.788073     -0.966382      1.080713
  C      -2.162400     -0.885070      0.842116
  C      -2.661822     -0.077488     -0.185651
  C      -1.772847      0.635477     -0.998099
  C      -0.393463      0.565135     -0.777640
  H       2.966888      0.225823     -1.431822
  H       2.549314      1.672587     -0.421726
  H       3.853267      0.526105      0.096407
  H      -0.386277     -1.602171      1.873712
  H      -2.847491     -1.452444      1.477087
  H      -3.739766     -0.005370     -0.356154
  H      -2.152137      1.265568     -1.806381
  H       0.285524      1.119919     -1.432436
17
Coordinates from ORCA-job step7_irc_IRC_Full E -744.241032654405
  C       2.883471      0.623973     -0.410786
  S       1.819463     -0.598373      0.454813
  O       2.317537     -1.253177      1.744224
  C       0.090451     -0.214606      0.285136
  C      -0.789116     -0.970822      1.078134
  C      -2.161521     -0.885508      0.841807
  C      -2.662805     -0.076911     -0.186071
  C      -1.772855      0.635250     -0.997309
  C      -0.393752      0.563543     -0.782147
  H       2.967973      0.222082     -1.435770
  H       2.550591      1.669552     -0.425104
  H       3.853076      0.525430      0.095014
  H      -0.386372     -1.603263      1.873692
  H      -2.847206     -1.452003      1.477339
  H      -3.740079     -0.005136     -0.356022
  H      -2.151927      1.265990     -1.806006
  H       0.285470      1.119301     -1.433370
17
Coordinates from ORCA-job step7_irc_IRC_Full E -744.230654348460
  C       2.885834      0.608729     -0.422117
  S       1.807990     -0.541531      0.483842
  O       2.325173     -1.279778      1.739185
  C       0.093205     -0.224655      0.279410
  C      -0.790522     -0.975088      1.076517
  C      -2.160801     -0.885462      0.841472
  C      -2.663694     -0.076632     -0.186129
  C      -1.772909      0.635337     -0.996593
  C      -0.393840      0.562571     -0.786578
  H       2.968607      0.221422     -1.434087
  H       2.549916      1.670756     -0.427158
  H       3.853663      0.525297      0.094461
  H      -0.386514     -1.603819      1.873269
  H      -2.847047     -1.451721      1.477609
  H      -3.740177     -0.004984     -0.355930
  H      -2.151773      1.266328     -1.805725
  H       0.285288      1.118552     -1.433873
17
Coordinates from ORCA-job step7_irc_IRC_Full E -744.219081814666
  C       2.885257      0.607361     -0.424326
  S       1.798824     -0.456554      0.554549
  O       2.330815     -1.315279      1.713048
  C       0.092411     -0.241264      0.262923
  C      -0.789585     -0.980344      1.073498
  C      -2.160957     -0.885076      0.841168
  C      -2.664029     -0.076197     -0.185762
  C      -1.772980      0.636270     -0.995795
  C      -0.393873      0.558268     -0.789418
  H       2.971634      0.214070     -1.447727
  H       2.552926      1.656444     -0.430667
  H       3.851659      0.523940      0.091971
  H      -0.386619     -1.604936      1.872842
  H      -2.846583     -1.451187      1.477745
  H      -3.740644     -0.004757     -0.355834
  H      -2.151608      1.266618     -1.805203
  H       0.285752      1.117945     -1.435439
17
Coordinates from ORCA-job step7_irc_IRC_Full E -744.217100203924
  C       2.887268      0.584835     -0.442983
  S       1.796203     -0.422918      0.583892
  O       2.333125     -1.341487      1.690022
  C       0.093769     -0.259946      0.246766
  C      -0.789068     -0.985967      1.068422
  C      -2.160826     -0.884698      0.841452
  C      -2.664141     -0.075236     -0.184997
  C      -1.773317      0.637588     -0.994791
  C      -0.393737      0.553190     -0.794135
  H       2.985607      0.186006     -1.464008
  H       2.543417      1.629521     -0.457261
  H       3.850399      0.519365      0.081771
  H      -0.385946     -1.612046      1.866538
  H      -2.846464     -1.448482      1.480087
  H      -3.740875     -0.002533     -0.353821
  H      -2.152272      1.270143     -1.802306
  H       0.285178      1.109233     -1.444053
17
Coordinates from ORCA-job step7_irc_IRC_Full E -744.219056529232
  C       2.889279      0.562309     -0.461640
  S       1.793583     -0.389283      0.613236
  O       2.335435     -1.367695      1.666996
  C       0.095126     -0.278629      0.230609
  C      -0.788550     -0.991591      1.063346
  C      -2.160696     -0.884319      0.841736
  C      -2.664253     -0.074275     -0.184233
  C      -1.773653      0.638905     -0.993787
  C      -0.393601      0.548112     -0.798852
  H       2.999579      0.157943     -1.480290
  H       2.533909      1.602597     -0.483856
  H       3.849140      0.514790      0.071570
  H      -0.385273     -1.619155      1.860234
  H      -2.846345     -1.445778      1.482429
  H      -3.741105     -0.000308     -0.351807
  H      -2.152936      1.273669     -1.799410
  H       0.284604      1.100521     -1.452668
17
Coordinates from ORCA-job step7_irc_IRC_Full E -744.230305486745
  C       2.889098      0.559896     -0.460423
  S       1.789761     -0.306980      0.687072
  O       2.335216     -1.398347      1.635053
  C       0.098328     -0.297293      0.216544
  C      -0.788695     -0.995593      1.058618
  C      -2.160584     -0.884565      0.842292
  C      -2.663986     -0.073733     -0.184017
  C      -1.773875      0.639782     -0.993298
  C      -0.393584      0.543985     -0.802261
  H       3.001298      0.148946     -1.494872
  H       2.535957      1.589976     -0.486216
  H       3.846709      0.513444      0.067291
  H      -0.385166     -1.619533      1.858942
  H      -2.846660     -1.445485      1.482820
  H      -3.740726     -0.000143     -0.351529
  H      -2.153366      1.274308     -1.799391
  H       0.284517      1.099149     -1.453011
17
Coordinates from ORCA-job step7_irc_IRC_Full E -744.240337243986
  C       2.889965      0.546314     -0.474095
  S       1.793834     -0.270057      0.739449
  O       2.330433     -1.407148      1.608900
  C       0.096637     -0.305139      0.207722
  C      -0.787052     -0.997704      1.054529
  C      -2.161059     -0.884795      0.842245
  C      -2.663154     -0.073736     -0.183668
  C      -1.774153      0.640370     -0.993526
  C      -0.392966      0.539912     -0.803097
  H       3.000375      0.147737     -1.491756
  H       2.534953      1.591120     -0.487542
  H       3.847925      0.512997      0.066724
  H      -0.384959     -1.620008      1.858464
  H      -2.846849     -1.445202      1.483080
  H      -3.740647      0.000011     -0.351367
  H      -2.153596      1.274633     -1.799137
  H       0.284556      1.098509     -1.453311
17
Coordinates from ORCA-job step7_irc_IRC_Full E -744.250090619842
  C       2.889754      0.539505     -0.479826
  S       1.796480     -0.225149      0.794096
  O       2.325664     -1.419450      1.580919
  C       0.097542     -0.313626      0.199466
  C      -0.785747     -1.000847      1.050378
  C      -2.161718     -0.885223      0.841864
  C      -2.662222     -0.073918     -0.183108
  C      -1.774393      0.640853     -0.994089
  C      -0.392310      0.535417     -0.804391
  H       2.999146      0.142878     -1.493588
  H       2.535649      1.587073     -0.489586
  H       3.848063      0.512320      0.064176
  H      -0.384819     -1.620165      1.857304
  H      -2.847140     -1.444873      1.483458
  H      -3.740365      0.000249     -0.351092
  H      -2.153948      1.275105     -1.798863
  H       0.284608      1.097664     -1.453504
17
Coordinates from ORCA-job step7_irc_IRC_Full E -744.257617354485
  C       2.888003      0.538225     -0.475674
  S       1.801130     -0.184038      0.849004
  O       2.317813     -1.427725      1.548066
  C       0.100803     -0.319786      0.196378
  C      -0.785056     -1.004090      1.043913
  C      -2.160993     -0.887261      0.841747
  C      -2.661629     -0.073371     -0.183504
  C      -1.774032      0.639911     -0.994669
  C      -0.391902      0.530911     -0.807421
  H       2.995871      0.133677     -1.497861
  H       2.537930      1.581452     -0.493360
  H       3.848022      0.511548      0.059366
  H      -0.384344     -1.620429      1.856024
  H      -2.847711     -1.444406      1.483990
  H      -3.739575      0.000680     -0.350470
  H      -2.154607      1.276019     -1.798784
  H       0.284519      1.096497     -1.453132
17
Coordinates from ORCA-job step7_irc_IRC_Full E -744.262244627050
  C       2.883757      0.533047     -0.473127
  S       1.803880     -0.146824      0.897753
  O       2.308206     -1.434146      1.511513
  C       0.107045     -0.315536      0.197385
  C      -0.781459     -1.010500      1.039067
  C      -2.162231     -0.889537      0.837723
  C      -2.659717     -0.074886     -0.181779
  C      -1.773616      0.638176     -0.998245
  C      -0.389102      0.523070     -0.807928
  H       2.986297      0.122276     -1.490253
  H       2.541010      1.581017     -0.499634
  H       3.851736      0.511298      0.053634
  H      -0.384241     -1.619919      1.852898
  H      -2.848240     -1.443892      1.484817
  H      -3.738896      0.001860     -0.349371
  H      -2.155138      1.276694     -1.798002
  H       0.284951      1.095618     -1.452836
17
Coordinates from ORCA-job step7_irc_IRC_Full E -744.265062006117
  C       2.877985      0.538445     -0.456213
  S       1.806123     -0.123895      0.924452
  O       2.297488     -1.437695      1.477076
  C       0.112213     -0.302970      0.209885
  C      -0.778681     -1.012991      1.032770
  C      -2.158373     -0.896375      0.833773
  C      -2.658193     -0.075544     -0.183678
  C      -1.770663      0.631813     -1.001734
  C      -0.386688      0.520266     -0.810206
  H       2.967161      0.102373     -1.475828
  H       2.547571      1.582386     -0.510120
  H       3.855358      0.511313      0.044474
  H      -0.382804     -1.621340      1.850468
  H      -2.847770     -1.443378      1.484632
  H      -3.737327      0.004190     -0.347010
  H      -2.155002      1.276737     -1.797375
  H       0.285847      1.094478     -1.451752
17
Coordinates from ORCA-job step7_irc_IRC_Full E -744.267429111171
  C       2.871814      0.542348     -0.446130
  S       1.805878     -0.108933      0.938945
  O       2.288735     -1.443988      1.445539
  C       0.114148     -0.284232      0.222162
  C      -0.774448     -1.011859      1.032084
  C      -2.154003     -0.903017      0.827542
  C      -2.654857     -0.079707     -0.186463
  C      -1.767861      0.624980     -1.006578
  C      -0.383953      0.522266     -0.808831
  H       2.936342      0.077193     -1.445723
  H       2.555288      1.592076     -0.523121
  H       3.860802      0.512184      0.036819
  H      -0.380040     -1.623717      1.847277
  H      -2.844660     -1.444337      1.482199
  H      -3.734335      0.007594     -0.343602
  H      -2.153159      1.274216     -1.797246
  H       0.288551      1.094747     -1.451262
17
Coordinates from ORCA-job step7_irc_IRC_Full E -744.269429444554
  C       2.864678      0.550459     -0.432040
  S       1.805776     -0.098252      0.951372
  O       2.282713     -1.452406      1.416221
  C       0.116333     -0.267106      0.232491
  C      -0.770333     -1.007328      1.034109
  C      -2.149405     -0.907806      0.823663
  C      -2.650857     -0.084658     -0.190933
  C      -1.764889      0.620878     -1.010415
  C      -0.381785      0.528988     -0.806041
  H       2.899858      0.046914     -1.416990
  H       2.564356      1.601299     -0.537412
  H       3.862456      0.513322      0.029584
  H      -0.375338     -1.625615      1.844324
  H      -2.839733     -1.448662      1.477707
  H      -3.730515      0.010027     -0.340592
  H      -2.151210      1.270110     -1.800696
  H       0.292138      1.097649     -1.450738
17
Coordinates from ORCA-job step7_irc_IRC_Full E -744.270996063348
  C       2.856570      0.554243     -0.423830
  S       1.805931     -0.091664      0.964353
  O       2.279889     -1.459810      1.388926
  C       0.117767     -0.250257      0.242391
  C      -0.765593     -1.002078      1.036100
  C      -2.144408     -0.910031      0.820229
  C      -2.646455     -0.087339     -0.193236
  C      -1.761401      0.619669     -1.013664
  C      -0.378625      0.536473     -0.802282
  H       2.861526      0.018677     -1.386131
  H       2.571190      1.608974     -0.551295
  H       3.861793      0.513760      0.023919
  H      -0.369549     -1.624722      1.841510
  H      -2.834002     -1.455903      1.471962
  H      -3.726465      0.009539     -0.339971
  H      -2.149260      1.264502     -1.806551
  H       0.295335      1.103782     -1.448816
17
Coordinates from ORCA-job step7_irc_IRC_Full E -744.271542915626
  C       2.851865      0.555460     -0.418793
  S       1.806791     -0.089287      0.969463
  O       2.279563     -1.462671      1.377931
  C       0.119163     -0.242638      0.245646
  C      -0.763933     -0.999505      1.037886
  C      -2.142724     -0.910184      0.818547
  C      -2.644500     -0.088608     -0.193616
  C      -1.760158      0.620134     -1.014978
  C      -0.377139      0.540454     -0.799690
  H       2.845278      0.006918     -1.374600
  H       2.572745      1.610374     -0.557325
  H       3.860443      0.513104      0.021133
  H      -0.366620     -1.623576      1.840718
  H      -2.831101     -1.459713      1.468781
  H      -3.724386      0.008357     -0.340765
  H      -2.147943      1.261415     -1.809402
  H       0.296898      1.107779     -1.447322
17
Coordinates from ORCA-job step7_irc_IRC_Full E -744.271695109633
  C       2.850896      0.555730     -0.417918
  S       1.806877     -0.088720      0.970762
  O       2.279550     -1.463409      1.375239
  C       0.119290     -0.241404      0.247496
  C      -0.763522     -0.998225      1.037590
  C      -2.141712     -0.910755      0.818871
  C      -2.644043     -0.088263     -0.194535
  C      -1.759734      0.619825     -1.014684
  C      -0.376847      0.542081     -0.799749
  H       2.841165      0.004043     -1.371618
  H       2.572941      1.610548     -0.558768
  H       3.859976      0.512865      0.020393
  H      -0.365810     -1.623330      1.840734
  H      -2.830362     -1.460663      1.467864
  H      -3.723873      0.007923     -0.341051
  H      -2.147678      1.260783     -1.810338
  H       0.297129      1.108786     -1.446676
17
Coordinates from ORCA-job step7_irc_IRC_Full E -744.271998075084
  C       2.848480      0.556214     -0.415861
  S       1.807151     -0.087472      0.973768
  O       2.279554     -1.465105      1.369110
  C       0.119769     -0.237621      0.250650
  C      -0.762449     -0.996005      1.037868
  C      -2.140063     -0.911384      0.818732
  C      -2.642882     -0.088276     -0.195679
  C      -1.758740      0.619716     -1.014702
  C      -0.376044      0.545127     -0.798868
  H       2.831711     -0.002593     -1.364896
  H       2.573270      1.610982     -0.562104
  H       3.858964      0.512268      0.018699
  H      -0.364044     -1.622501      1.840536
  H      -2.828645     -1.462947      1.465809
  H      -3.722686      0.006888     -0.341827
  H      -2.146950      1.259153     -1.812286
  H       0.297845      1.111371     -1.445334
17
Coordinates from ORCA-job step7_irc_IRC_Full E -744.272295327902
  C       2.845674      0.556539     -0.413641
  S       1.807582     -0.086192      0.977003
  O       2.279594     -1.466919      1.362613
  C       0.120420     -0.232787      0.253222
  C      -0.761121     -0.994113      1.038950
  C      -2.138929     -0.911532      0.817887
  C      -2.641458     -0.088886     -0.196223
  C      -1.757703      0.620044     -1.015185
  C      -0.375052      0.547941     -0.797059
  H       2.821535     -0.009738     -1.357848
  H       2.573379      1.611393     -0.565711
  H       3.857894      0.511528      0.016829
  H      -0.362199     -1.621348      1.840203
  H      -2.826744     -1.465509      1.463583
  H      -3.721373      0.005643     -0.342859
  H      -2.146035      1.257262     -1.814247
  H       0.298777      1.114488     -1.443905
17
Coordinates from ORCA-job step7_irc_IRC_Full E -744.272572416015
  C       2.842997      0.556756     -0.411782
  S       1.808087     -0.085077      0.980147
  O       2.279613     -1.468586      1.356431
  C       0.121001     -0.228481      0.256381
  C      -0.760063     -0.991830      1.039648
  C      -2.137223     -0.911899      0.817399
  C      -2.640232     -0.089245     -0.197146
  C      -1.756569      0.620298     -1.015435
  C      -0.374087      0.551218     -0.795641
  H       2.811679     -0.016538     -1.351079
  H       2.573174      1.611434     -0.569169
  H       3.856685      0.510686      0.014840
  H      -0.360335     -1.620180      1.840136
  H      -2.824964     -1.468100      1.461355
  H      -3.720026      0.004200     -0.344107
  H      -2.145076      1.255462     -1.816203
  H       0.299584      1.117696     -1.442162
17
Coordinates from ORCA-job step7_irc_IRC_Full E -744.272845176187
  C       2.840140      0.556801     -0.409819
  S       1.808625     -0.083835      0.983285
  O       2.279689     -1.470434      1.350290
  C       0.121694     -0.223625      0.259218
  C      -0.758736     -0.989704      1.040786
  C      -2.136083     -0.912204      0.816780
  C      -2.638763     -0.089749     -0.198020
  C      -1.755322      0.620598     -1.015618
  C      -0.373189      0.554334     -0.793631
  H       2.801630     -0.023502     -1.344462
  H       2.572693      1.611390     -0.572718
  H       3.855448      0.509737      0.012687
  H      -0.358482     -1.618788      1.840069
  H      -2.822989     -1.470730      1.458921
  H      -3.718630      0.002535     -0.345585
  H      -2.144049      1.253673     -1.818252
  H       0.300566      1.121315     -1.440319
17
Coordinates from ORCA-job step7_irc_IRC_Full E -744.273088587503
  C       2.837353      0.556713     -0.408389
  S       1.809314     -0.083025      0.986437
  O       2.279615     -1.471896      1.344401
  C       0.122251     -0.219218      0.262588
  C      -0.757732     -0.987297      1.041693
  C      -2.134229     -0.912355      0.816052
  C      -2.637487     -0.090397     -0.198850
  C      -1.754228      0.621146     -1.015993
  C      -0.371955      0.557914     -0.791949
  H       2.791878     -0.030091     -1.338019
  H       2.571925      1.610973     -0.576139
  H       3.854140      0.508704      0.010391
  H      -0.356628     -1.617345      1.840245
  H      -2.821281     -1.473515      1.456625
  H      -3.717188      0.000673     -0.347336
  H      -2.142852      1.251836     -1.820077
  H       0.301347      1.124994     -1.438065
17
Coordinates from ORCA-job step7_irc_IRC_Full E -744.273325783000
  C       2.834516      0.556455     -0.406766
  S       1.809970     -0.081863      0.989394
  O       2.279625     -1.473729      1.338834
  C       0.122960     -0.214383      0.265600
  C      -0.756548     -0.985025      1.042940
  C      -2.133042     -0.912687      0.815488
  C      -2.635991     -0.090994     -0.199891
  C      -1.752864      0.621546     -1.016035
  C      -0.371040      0.561261     -0.789685
  H       2.782210     -0.036713     -1.332084
  H       2.570844      1.610458     -0.579579
  H       3.852803      0.507589      0.007882
  H      -0.354840     -1.615731      1.840520
  H      -2.819339     -1.476183      1.454072
  H      -3.715712     -0.001447     -0.349329
  H      -2.141654      1.250187     -1.822038
  H       0.302343      1.129075     -1.435711
17
Coordinates from ORCA-job step7_irc_IRC_Full E -744.273542958412
  C       2.831555      0.556017     -0.405908
  S       1.810874     -0.081499      0.992627
  O       2.279335     -1.474861      1.333241
  C       0.123440     -0.209884      0.269225
  C      -0.755337     -0.982550      1.044175
  C      -2.131225     -0.912708      0.814563
  C      -2.634634     -0.091873     -0.200769
  C      -1.751768      0.622285     -1.016424
  C      -0.369598      0.565143     -0.787701
  H       2.772554     -0.043088     -1.325945
  H       2.569554      1.609624     -0.582994
  H       3.851496      0.506395      0.005226
  H      -0.353084     -1.613949      1.840888
  H      -2.817679     -1.479130      1.451673
  H      -3.714161     -0.003782     -0.351621
  H      -2.140224      1.248398     -1.823742
  H       0.303145      1.133274     -1.432904
17
Coordinates from ORCA-job step7_irc_IRC_Full E -744.273745831282
  C       2.829001      0.555576     -0.404387
  S       1.811497     -0.080063      0.995115
  O       2.279325     -1.476954      1.328637
  C       0.124234     -0.205168      0.272069
  C      -0.754496     -0.980301      1.045459
  C      -2.130249     -0.913135      0.814130
  C      -2.633064     -0.092557     -0.201926
  C      -1.750377      0.622697     -1.016265
  C      -0.368736      0.568391     -0.785138
  H       2.763748     -0.049178     -1.321195
  H       2.568025      1.608767     -0.586197
  H       3.850095      0.505225      0.002397
  H      -0.351457     -1.612278      1.841558
  H      -2.815801     -1.481615      1.449085
  H      -3.712716     -0.006245     -0.354011
  H      -2.138940      1.247055     -1.825525
  H       0.304154      1.137597     -1.430191
17
Coordinates from ORCA-job step7_irc_IRC_Full E -744.273938735491
  C       2.826097      0.554786     -0.404077
  S       1.812435     -0.079640      0.998171
  O       2.278903     -1.478187      1.323799
  C       0.124675     -0.200649      0.275671
  C      -0.753083     -0.977870      1.047009
  C      -2.128744     -0.913361      0.813397
  C      -2.631621     -0.093381     -0.203220
  C      -1.748821      0.623384     -1.016294
  C      -0.367831      0.572188     -0.782650
  H       2.754633     -0.055090     -1.315811
  H       2.566247      1.607533     -0.589486
  H       3.848807      0.503939     -0.000668
  H      -0.349946     -1.610215      1.842172
  H      -2.814144     -1.484479      1.446543
  H      -3.711129     -0.009077     -0.356816
  H      -2.137401      1.245574     -1.827129
  H       0.305163      1.142358     -1.426998
17
Coordinates from ORCA-job step7_irc_IRC_Full E -744.274120054492
  C       2.823302      0.553993     -0.403044
  S       1.813383     -0.078757      1.000789
  O       2.278495     -1.479825      1.319431
  C       0.125465     -0.195784      0.279021
  C      -0.752331     -0.975407      1.048526
  C      -2.127548     -0.913710      0.812755
  C      -2.630077     -0.094406     -0.204471
  C      -1.747444      0.624011     -1.016144
  C      -0.366527      0.576033     -0.779875
  H       2.745672     -0.061197     -1.311375
  H       2.564206      1.606270     -0.592838
  H       3.847424      0.502606     -0.004079
  H      -0.348362     -1.608243      1.843235
  H      -2.812313     -1.487195      1.443776
  H      -3.709420     -0.012177     -0.359903
  H      -2.135800      1.244326     -1.828774
  H       0.306116      1.147277     -1.423413
17
Coordinates from ORCA-job step7_irc_IRC_Full E -744.274294637205
  C       2.820559      0.552991     -0.403091
  S       1.814327     -0.078088      1.003628
  O       2.277927     -1.481290      1.315338
  C       0.125865     -0.191341      0.282843
  C      -0.751035     -0.972877      1.050219
  C      -2.125970     -0.913960      0.811977
  C      -2.628468     -0.095428     -0.205934
  C      -1.745876      0.624864     -1.016138
  C      -0.365596      0.579986     -0.777007
  H       2.736927     -0.066850     -1.306781
  H       2.562014      1.604614     -0.596086
  H       3.846046      0.501233     -0.007692
  H      -0.347034     -1.605979      1.844222
  H      -2.810787     -1.490122      1.441172
  H      -3.707819     -0.015527     -0.363307
  H      -2.134027      1.243052     -1.830110
  H       0.307189      1.152535     -1.419639
17
Coordinates from ORCA-job step7_irc_IRC_Full E -744.274456277230
  C       2.817715      0.551836     -0.402416
  S       1.815457     -0.077410      1.006054
  O       2.277218     -1.482686      1.311692
  C       0.126719     -0.186471      0.286269
  C      -0.750525     -0.970374      1.051846
  C      -2.124951     -0.914388      0.811330
  C      -2.626972     -0.096681     -0.207320
  C      -1.744417      0.625506     -1.015763
  C      -0.364174      0.584014     -0.773983
  H       2.728426     -0.072653     -1.303189
  H       2.559613      1.603138     -0.599423
  H       3.844820      0.499826     -0.011545
  H      -0.345599     -1.603915      1.845741
  H      -2.808989     -1.492773      1.438271
  H      -3.705935     -0.019133     -0.366927
  H      -2.132282      1.242163     -1.831606
  H       0.308120      1.157816     -1.415418
17
Coordinates from ORCA-job step7_irc_IRC_Full E -744.274618756045
  C       2.815251      0.550699     -0.403144
  S       1.816430     -0.076794      1.008762
  O       2.276416     -1.484026      1.308445
  C       0.126912     -0.182321      0.290218
  C      -0.749090     -0.967992      1.053846
  C      -2.123280     -0.914612      0.810455
  C      -2.625259     -0.097833     -0.208964
  C      -1.742826      0.626577     -1.015811
  C      -0.363404      0.587946     -0.770818
  H       2.720337     -0.077781     -1.299347
  H       2.557200      1.601037     -0.602517
  H       3.843400      0.498410     -0.015592
  H      -0.344630     -1.601401      1.846866
  H      -2.807742     -1.495736      1.435765
  H      -3.704415     -0.022892     -0.370820
  H      -2.130314      1.241108     -1.832507
  H       0.309256      1.163425     -1.411225
17
Coordinates from ORCA-job step7_irc_IRC_Full E -744.274765825688
  C       2.812339      0.549139     -0.402590
  S       1.817657     -0.076183      1.010762
  O       2.275484     -1.485175      1.305713
  C       0.127958     -0.177547      0.293446
  C      -0.749032     -0.965503      1.055339
  C      -2.122737     -0.915128      0.809813
  C      -2.623957     -0.099355     -0.210290
  C      -1.741343      0.627099     -1.015107
  C      -0.361813      0.591951     -0.767678
  H       2.712636     -0.083151     -1.296857
  H       2.554627      1.599654     -0.605774
  H       3.842535      0.496989     -0.019659
  H      -0.343320     -1.599516      1.848920
  H      -2.805950     -1.498120      1.432773
  H      -3.702339     -0.026812     -0.374747
  H      -2.128578      1.240735     -1.833905
  H       0.310078      1.168738     -1.406545
17
Coordinates from ORCA-job step7_irc_IRC_Full E -744.274898197554
  C       2.810568      0.548170     -0.404143
  S       1.818497     -0.075620      1.013307
  O       2.274571     -1.486303      1.303440
  C       0.127752     -0.174039      0.297263
  C      -0.747369     -0.963588      1.057686
  C      -2.120726     -0.915266      0.808874
  C      -2.622137     -0.100447     -0.212065
  C      -1.739882      0.628483     -1.015449
  C      -0.361411      0.595493     -0.764392
  H       2.705645     -0.087404     -1.293722
  H       2.552323      1.597087     -0.608480
  H       3.840938      0.495616     -0.023852
  H      -0.342882     -1.596804      1.849823
  H      -2.805199     -1.501055      1.430658
  H      -3.701182     -0.030633     -0.378806
  H      -2.126508      1.239805     -1.834142
  H       0.311243      1.174317     -1.402388
17
Coordinates from ORCA-job step7_irc_IRC_Full E -744.274928741038
  C       2.809575      0.547536     -0.403861
  S       1.818919     -0.075436      1.013720
  O       2.274241     -1.486551      1.302880
  C       0.128194     -0.172640      0.298129
  C      -0.747574     -0.962803      1.057968
  C      -2.120847     -0.915471      0.808703
  C      -2.621886     -0.101000     -0.212387
  C      -1.739426      0.628518     -1.015049
  C      -0.360848      0.596695     -0.763507
  H       2.703590     -0.088918     -1.293343
  H       2.551540      1.596837     -0.609452
  H       3.840893      0.495192     -0.025052
  H      -0.342466     -1.596399      1.850659
  H      -2.804600     -1.501620      1.429699
  H      -3.700432     -0.031850     -0.379997
  H      -2.126050      1.239902     -1.834617
  H       0.311420      1.175824     -1.400879
17
Coordinates from ORCA-job step7_irc_IRC_Full E -744.275000610727
  C       2.808355      0.546747     -0.404032
  S       1.819487     -0.075109      1.014646
  O       2.273708     -1.487016      1.301977
  C       0.128492     -0.170854      0.300074
  C      -0.747386     -0.961516      1.058595
  C      -2.120309     -0.915904      0.808597
  C      -2.621260     -0.101493     -0.213436
  C      -1.738679      0.628741     -1.014579
  C      -0.360391      0.598742     -0.762149
  H       2.700219     -0.091199     -1.292386
  H       2.550307      1.595962     -0.610933
  H       3.840456      0.494485     -0.027158
  H      -0.342025     -1.595425      1.851670
  H      -2.803917     -1.502784      1.428333
  H      -3.699488     -0.033883     -0.382037
  H      -2.125162      1.239843     -1.835076
  H       0.311839      1.178477     -1.398492
17
Coordinates from ORCA-job step7_irc_IRC_Full E -744.275075394506
  C       2.807158      0.545962     -0.404585
  S       1.820043     -0.074770      1.015800
  O       2.273116     -1.487526      1.301039
  C       0.128623     -0.168787      0.302084
  C      -0.746819     -0.960343      1.059687
  C      -2.119652     -0.916099      0.808127
  C      -2.620350     -0.102238     -0.214384
  C      -1.737916      0.629294     -1.014427
  C      -0.359902      0.600808     -0.760322
  H       2.696507     -0.093608     -1.291194
  H       2.548961      1.594761     -0.612524
  H       3.839830      0.493685     -0.029573
  H      -0.341703     -1.594124      1.852554
  H      -2.803333     -1.504238      1.426964
  H      -3.698626     -0.036161     -0.384402
  H      -2.124072      1.239643     -1.835339
  H       0.312378      1.181556     -1.395893
17
Coordinates from ORCA-job step7_irc_IRC_Full E -744.275142041794
  C       2.805862      0.545057     -0.404835
  S       1.820684     -0.074416      1.016783
  O       2.272489     -1.487967      1.300235
  C       0.129026     -0.166573      0.303917
  C      -0.746808     -0.959106      1.060554
  C      -2.119147     -0.916466      0.807836
  C      -2.619706     -0.103059     -0.215277
  C      -1.737018      0.629695     -1.014045
  C      -0.359288      0.602939     -0.758583
  H       2.692884     -0.096073     -1.290305
  H       2.547598      1.593752     -0.614163
  H       3.839336      0.492875     -0.031980
  H      -0.341259     -1.593039      1.853719
  H      -2.802585     -1.505513      1.425439
  H      -3.697570     -0.038470     -0.386752
  H      -2.123072      1.239645     -1.835766
  H       0.312818      1.184532     -1.393163
17
Coordinates from ORCA-job step7_irc_IRC_Full E -744.275207632478
  C       2.804699      0.544230     -0.405496
  S       1.821244     -0.074057      1.017888
  O       2.271865     -1.488396      1.299516
  C       0.129118     -0.164660      0.305978
  C      -0.746235     -0.957962      1.061634
  C      -2.118432     -0.916667      0.807355
  C      -2.618859     -0.103790     -0.216285
  C      -1.736243      0.630273     -1.013880
  C      -0.358934      0.604976     -0.756761
  H       2.689351     -0.098370     -1.289299
  H       2.546280      1.592535     -0.615730
  H       3.838760      0.492053     -0.034424
  H      -0.341008     -1.591746      1.854625
  H      -2.802082     -1.506972      1.424115
  H      -3.696685     -0.040795     -0.389158
  H      -2.121974      1.239517     -1.835926
  H       0.313376      1.187644     -1.390540
