17
Coordinates from ORCA-job step7_irc_IRC_B E -744.219081814666
  C       2.885257      0.607361     -0.424326
  S       1.798824     -0.456554      0.554549
  O       2.330815     -1.315279      1.713048
  C       0.092411     -0.241264      0.262923
  C      -0.789585     -0.980344      1.073498
  C      -2.160957     -0.885076      0.841168
  C      -2.664029     -0.076197     -0.185762
  C      -1.772980      0.636270     -0.995795
  C      -0.393873      0.558268     -0.789418
  H       2.971634      0.214070     -1.447727
  H       2.552926      1.656444     -0.430667
  H       3.851659      0.523940      0.091971
  H      -0.386619     -1.604936      1.872842
  H      -2.846583     -1.451187      1.477745
  H      -3.740644     -0.004757     -0.355834
  H      -2.151608      1.266618     -1.805203
  H       0.285752      1.117945     -1.435439
17
Coordinates from ORCA-job step7_irc_IRC_B E -744.230654348460
  C       2.885834      0.608729     -0.422117
  S       1.807990     -0.541531      0.483842
  O       2.325173     -1.279778      1.739185
  C       0.093205     -0.224655      0.279410
  C      -0.790522     -0.975088      1.076517
  C      -2.160801     -0.885462      0.841472
  C      -2.663694     -0.076632     -0.186129
  C      -1.772909      0.635337     -0.996593
  C      -0.393840      0.562571     -0.786578
  H       2.968607      0.221422     -1.434087
  H       2.549916      1.670756     -0.427158
  H       3.853663      0.525297      0.094461
  H      -0.386514     -1.603819      1.873269
  H      -2.847047     -1.451721      1.477609
  H      -3.740177     -0.004984     -0.355930
  H      -2.151773      1.266328     -1.805725
  H       0.285288      1.118552     -1.433873
17
Coordinates from ORCA-job step7_irc_IRC_B E -744.241032654405
  C       2.883471      0.623973     -0.410786
  S       1.819463     -0.598373      0.454813
  O       2.317537     -1.253177      1.744224
  C       0.090451     -0.214606      0.285136
  C      -0.789116     -0.970822      1.078134
  C      -2.161521     -0.885508      0.841807
  C      -2.662805     -0.076911     -0.186071
  C      -1.772855      0.635250     -0.997309
  C      -0.393752      0.563543     -0.782147
  H       2.967973      0.222082     -1.435770
  H       2.550591      1.669552     -0.425104
  H       3.853076      0.525430      0.095014
  H      -0.386372     -1.603263      1.873692
  H      -2.847206     -1.452003      1.477339
  H      -3.740079     -0.005136     -0.356022
  H      -2.151927      1.265990     -1.806006
  H       0.285470      1.119301     -1.433370
17
Coordinates from ORCA-job step7_irc_IRC_B E -744.251123591852
  C       2.881622      0.631419     -0.405154
  S       1.830419     -0.658461      0.419065
  O       2.309489     -1.224375      1.752027
  C       0.090152     -0.204948      0.291512
  C      -0.788073     -0.966382      1.080713
  C      -2.162400     -0.885070      0.842116
  C      -2.661822     -0.077488     -0.185651
  C      -1.772847      0.635477     -0.998099
  C      -0.393463      0.565135     -0.777640
  H       2.966888      0.225823     -1.431822
  H       2.549314      1.672587     -0.421726
  H       3.853267      0.526105      0.096407
  H      -0.386277     -1.602171      1.873712
  H      -2.847491     -1.452444      1.477087
  H      -3.739766     -0.005370     -0.356154
  H      -2.152137      1.265568     -1.806381
  H       0.285524      1.119919     -1.432436
17
Coordinates from ORCA-job step7_irc_IRC_B E -744.258927787986
  C       2.880261      0.628862     -0.402693
  S       1.843080     -0.717906      0.386245
  O       2.298561     -1.191748      1.755609
  C       0.092867     -0.200950      0.297194
  C      -0.788047     -0.959396      1.082475
  C      -2.161483     -0.884617      0.844354
  C      -2.661128     -0.077111     -0.186449
  C      -1.772684      0.635694     -0.997385
  C      -0.393370      0.568953     -0.774360
  H       2.966438      0.232670     -1.426113
  H       2.544998      1.678528     -0.416176
  H       3.852992      0.527317      0.098302
  H      -0.385728     -1.601107      1.874035
  H      -2.848088     -1.453092      1.476752
  H      -3.738888     -0.005909     -0.356340
  H      -2.152565      1.265224     -1.807241
  H       0.285182      1.119909     -1.430633
17
Coordinates from ORCA-job step7_irc_IRC_B E -744.263659270225
  C       2.874510      0.626858     -0.397890
  S       1.854435     -0.770999      0.357784
  O       2.284990     -1.155624      1.755350
  C       0.099629     -0.201882      0.292310
  C      -0.784593     -0.953610      1.088351
  C      -2.163143     -0.880295      0.845729
  C      -2.659245     -0.078702     -0.184420
  C      -1.772280      0.639062     -0.996999
  C      -0.391693      0.570401     -0.766368
  H       2.968649      0.241541     -1.426374
  H       2.538589      1.675054     -0.406286
  H       3.851834      0.528207      0.100952
  H      -0.385606     -1.598319      1.873009
  H      -2.848490     -1.453948      1.476418
  H      -3.737954     -0.007012     -0.357099
  H      -2.152858      1.264197     -1.807710
  H       0.285626      1.120394     -1.429184
17
Coordinates from ORCA-job step7_irc_IRC_B E -744.266405705520
  C       2.870224      0.611708     -0.398553
  S       1.861810     -0.801554      0.337350
  O       2.270327     -1.121054      1.753976
  C       0.107590     -0.217084      0.282353
  C      -0.781754     -0.946291      1.089295
  C      -2.159058     -0.874767      0.852209
  C      -2.657708     -0.076949     -0.184310
  C      -1.770397      0.643146     -0.991796
  C      -0.389619      0.573635     -0.764828
  H       2.974449      0.256435     -1.430022
  H       2.524580      1.665240     -0.389238
  H       3.846136      0.528153      0.104114
  H      -0.383862     -1.595779      1.874150
  H      -2.847893     -1.453733      1.476025
  H      -3.735914     -0.009535     -0.358571
  H      -2.152643      1.263449     -1.807817
  H       0.286130      1.120303     -1.426764
17
Coordinates from ORCA-job step7_irc_IRC_B E -744.268652947700
  C       2.863271      0.600332     -0.400740
  S       1.865083     -0.817280      0.324167
  O       2.255835     -1.087010      1.755306
  C       0.112441     -0.235017      0.263937
  C      -0.776118     -0.945514      1.087471
  C      -2.153924     -0.866441      0.858546
  C      -2.654375     -0.073291     -0.180736
  C      -1.767991      0.649122     -0.985885
  C      -0.386633      0.571678     -0.767251
  H       2.984525      0.274699     -1.443578
  H       2.502112      1.640899     -0.363372
  H       3.836649      0.523766      0.108980
  H      -0.380267     -1.591669      1.876001
  H      -2.844008     -1.450291      1.476869
  H      -3.731923     -0.013692     -0.360744
  H      -2.151014      1.263695     -1.805383
  H       0.288736      1.121336     -1.426013
17
Coordinates from ORCA-job step7_irc_IRC_B E -744.270456607227
  C       2.857293      0.585724     -0.406623
  S       1.866853     -0.829153      0.316744
  O       2.243949     -1.055599      1.760086
  C       0.117139     -0.249111      0.247430
  C      -0.770186     -0.949337      1.082278
  C      -2.148819     -0.861349      0.862336
  C      -2.650202     -0.067738     -0.176178
  C      -1.765419      0.653481     -0.983500
  C      -0.383754      0.566812     -0.775076
  H       2.993977      0.295508     -1.456243
  H       2.472117      1.618551     -0.334641
  H       3.824944      0.515416      0.114289
  H      -0.373753     -1.587628      1.877254
  H      -2.837925     -1.443419      1.481630
  H      -3.726804     -0.017290     -0.361593
  H      -2.149681      1.268198     -1.801876
  H       0.292669      1.122257     -1.428744
17
Coordinates from ORCA-job step7_irc_IRC_B E -744.271793792167
  C       2.848725      0.578310     -0.407304
  S       1.869191     -0.840672      0.313295
  O       2.235047     -1.026590      1.765183
  C       0.120417     -0.263088      0.231526
  C      -0.763869     -0.951675      1.076133
  C      -2.141335     -0.858302      0.864711
  C      -2.645693     -0.065059     -0.175210
  C      -1.761191      0.656113     -0.983610
  C      -0.379671      0.562171     -0.783386
  H       2.998871      0.315093     -1.467233
  H       2.442312      1.593204     -0.306916
  H       3.812258      0.505895      0.118342
  H      -0.365600     -1.584248      1.874864
  H      -2.831564     -1.434738      1.489505
  H      -3.722301     -0.017364     -0.359500
  H      -2.149165      1.275872     -1.797949
  H       0.295969      1.120398     -1.434875
17
Coordinates from ORCA-job step7_irc_IRC_B E -744.271979563684
  C       2.847386      0.575623     -0.408156
  S       1.869579     -0.841976      0.312923
  O       2.234068     -1.022853      1.766120
  C       0.121612     -0.264588      0.229222
  C      -0.763024     -0.952493      1.075136
  C      -2.141215     -0.857733      0.864557
  C      -2.644794     -0.064807     -0.174910
  C      -1.761267      0.656276     -0.983856
  C      -0.379119      0.561137     -0.785012
  H       2.998526      0.318089     -1.467438
  H       2.437765      1.591076     -0.302910
  H       3.810841      0.504806      0.119049
  H      -0.364107     -1.584023      1.874410
  H      -2.830280     -1.433095      1.490680
  H      -3.721382     -0.016972     -0.358911
  H      -2.148839      1.277010     -1.797076
  H       0.296649      1.119848     -1.436255
17
Coordinates from ORCA-job step7_irc_IRC_B E -744.272520269497
  C       2.842581      0.570045     -0.408587
  S       1.870911     -0.846925      0.312140
  O       2.230726     -1.010056      1.769045
  C       0.124195     -0.270253      0.221377
  C      -0.759438     -0.954954      1.071538
  C      -2.139222     -0.856155      0.864446
  C      -2.641809     -0.063703     -0.174117
  C      -1.760426      0.656788     -0.984811
  C      -0.376685      0.557542     -0.790411
  H       2.997145      0.327734     -1.469565
  H       2.423059      1.581517     -0.289368
  H       3.805289      0.501044      0.120921
  H      -0.359266     -1.583061      1.872299
  H      -2.826329     -1.427629      1.495010
  H      -3.718990     -0.015352     -0.356872
  H      -2.147973      1.281121     -1.794355
  H       0.298631      1.117620     -1.441115
17
Coordinates from ORCA-job step7_irc_IRC_B E -744.273027458892
  C       2.837502      0.567542     -0.407001
  S       1.872425     -0.852181      0.312034
  O       2.227212     -0.997090      1.772164
  C       0.125745     -0.277641      0.213048
  C      -0.755435     -0.956984      1.067318
  C      -2.135252     -0.855030      0.864925
  C      -2.638769     -0.062163     -0.173679
  C      -1.757911      0.657043     -0.985909
  C      -0.373806      0.553631     -0.796344
  H       2.994125      0.337273     -1.472280
  H       2.408176      1.570127     -0.274790
  H       3.798991      0.497450      0.122226
  H      -0.354252     -1.582193      1.869067
  H      -2.822440     -1.421731      1.499934
  H      -3.717013     -0.012644     -0.354166
  H      -2.147266      1.285772     -1.791940
  H       0.300367      1.114140     -1.447032
17
Coordinates from ORCA-job step7_irc_IRC_B E -744.273450948121
  C       2.831815      0.562261     -0.406864
  S       1.874435     -0.856562      0.311891
  O       2.223648     -0.985590      1.775510
  C       0.129874     -0.284126      0.204912
  C      -0.753098     -0.959609      1.062917
  C      -2.133197     -0.853318      0.864775
  C      -2.636481     -0.060562     -0.173209
  C      -1.756855      0.657070     -0.987002
  C      -0.371854      0.549239     -0.802809
  H       2.989477      0.346753     -1.473098
  H       2.393630      1.562516     -0.260441
  H       3.794609      0.494884      0.123690
  H      -0.348696     -1.582595      1.866621
  H      -2.818282     -1.415758      1.504560
  H      -3.713483     -0.009155     -0.350741
  H      -2.145942      1.289801     -1.789404
  H       0.302800      1.110073     -1.453731
17
Coordinates from ORCA-job step7_irc_IRC_B E -744.273575699139
  C       2.830685      0.562570     -0.405994
  S       1.874922     -0.858055      0.312101
  O       2.222588     -0.982456      1.776489
  C       0.129523     -0.286555      0.202801
  C      -0.751544     -0.960279      1.061587
  C      -2.131531     -0.853300      0.865232
  C      -2.635316     -0.059811     -0.173052
  C      -1.755584      0.656986     -0.987425
  C      -0.370783      0.547933     -0.804767
  H       2.987634      0.349375     -1.473345
  H       2.389933      1.559362     -0.256309
  H       3.792751      0.494329      0.123525
  H      -0.347527     -1.582448      1.865211
  H      -2.817295     -1.413986      1.505948
  H      -3.713524     -0.007761     -0.349746
  H      -2.145676      1.291044     -1.788920
  H       0.303144      1.108375     -1.455760
17
Coordinates from ORCA-job step7_irc_IRC_B E -744.273760923256
  C       2.828139      0.562395     -0.404371
  S       1.875819     -0.860177      0.312523
  O       2.220857     -0.977699      1.777901
  C       0.130414     -0.289583      0.198704
  C      -0.750065     -0.961719      1.059821
  C      -2.129745     -0.852350      0.864886
  C      -2.634352     -0.059271     -0.172153
  C      -1.754127      0.657212     -0.988489
  C      -0.369527      0.545238     -0.807271
  H       2.984709      0.353442     -1.474149
  H       2.384091      1.555132     -0.249808
  H       3.790541      0.493568      0.123501
  H      -0.345339     -1.582638      1.863444
  H      -2.815760     -1.411352      1.508262
  H      -3.712412     -0.005491     -0.347951
  H      -2.145031      1.292736     -1.787959
  H       0.304189      1.105881     -1.459317
17
Coordinates from ORCA-job step7_irc_IRC_B E -744.273960571384
  C       2.825415      0.560880     -0.403792
  S       1.876937     -0.862319      0.312797
  O       2.218798     -0.972542      1.779806
  C       0.131911     -0.293398      0.194455
  C      -0.748596     -0.963291      1.057506
  C      -2.128201     -0.851657      0.865040
  C      -2.632871     -0.058076     -0.171690
  C      -1.752941      0.657066     -0.989302
  C      -0.368185      0.542445     -0.810832
  H       2.980856      0.358413     -1.474002
  H       2.377116      1.551553     -0.242093
  H       3.788463      0.492952      0.123531
  H      -0.342754     -1.583152      1.861551
  H      -2.813726     -1.408085      1.510653
  H      -3.711061     -0.002649     -0.345683
  H      -2.144143      1.294583     -1.786944
  H       0.305382      1.102600     -1.463426
17
Coordinates from ORCA-job step7_irc_IRC_B E -744.274147616010
  C       2.822612      0.560561     -0.402210
  S       1.878096     -0.864586      0.313291
  O       2.216631     -0.967568      1.781595
  C       0.132956     -0.297331      0.190237
  C      -0.746710     -0.964972      1.055193
  C      -2.126472     -0.850813      0.865034
  C      -2.631378     -0.056859     -0.171020
  C      -1.751522      0.656881     -0.990211
  C      -0.366657      0.539353     -0.814319
  H       2.976671      0.363323     -1.474262
  H       2.370566      1.547509     -0.234385
  H       3.786270      0.492523      0.123179
  H      -0.340330     -1.583729      1.859440
  H      -2.811880     -1.404870      1.513162
  H      -3.709861      0.000538     -0.343267
  H      -2.143209      1.296369     -1.786085
  H       0.306616      1.098995     -1.467796
17
Coordinates from ORCA-job step7_irc_IRC_B E -744.274327970247
  C       2.819781      0.559582     -0.401226
  S       1.879310     -0.866555      0.313724
  O       2.214413     -0.962991      1.783502
  C       0.134495     -0.301253      0.186013
  C      -0.745321     -0.966707      1.052884
  C      -2.125053     -0.850056      0.865169
  C      -2.629908     -0.055480     -0.170394
  C      -1.750305      0.656601     -0.991117
  C      -0.365199      0.536206     -0.817954
  H       2.972092      0.368394     -1.474000
  H       2.364042      1.544397     -0.226556
  H       3.784567      0.492363      0.122804
  H      -0.337890     -1.584612      1.857458
  H      -2.809946     -1.401566      1.515511
  H      -3.708477      0.004000     -0.340650
  H      -2.142124      1.297956     -1.785309
  H       0.307922      1.095045     -1.472282
17
Coordinates from ORCA-job step7_irc_IRC_B E -744.274502172586
  C       2.817128      0.559633     -0.399621
  S       1.880521     -0.868644      0.314291
  O       2.212149     -0.958702      1.785319
  C       0.135455     -0.305315      0.182041
  C      -0.743567     -0.968486      1.050571
  C      -2.123318     -0.849264      0.865299
  C      -2.628424     -0.054006     -0.169689
  C      -1.748754      0.656271     -0.992082
  C      -0.363693      0.532886     -0.821567
  H       2.967210      0.373422     -1.473850
  H       2.358003      1.541059     -0.218814
  H       3.782751      0.492403      0.122031
  H      -0.335704     -1.585532      1.855277
  H      -2.808246     -1.398352      1.517910
  H      -3.707335      0.007769     -0.337928
  H      -2.140994      1.299404     -1.784706
  H       0.309217      1.090777     -1.476908
17
Coordinates from ORCA-job step7_irc_IRC_B E -744.274668377578
  C       2.814188      0.559224     -0.398150
  S       1.881829     -0.870399      0.314834
  O       2.209823     -0.954767      1.787148
  C       0.137024     -0.309310      0.177963
  C      -0.742322     -0.970310      1.048273
  C      -2.122063     -0.848419      0.865388
  C      -2.627065     -0.052451     -0.168924
  C      -1.747525      0.655808     -0.993010
  C      -0.362208      0.529428     -0.825214
  H       2.962049      0.378588     -1.473617
  H       2.352052      1.538430     -0.210950
  H       3.781446      0.492669      0.121251
  H      -0.333459     -1.586796      1.853310
  H      -2.806461     -1.395053      1.520177
  H      -3.705828      0.011794     -0.334993
  H      -2.139722      1.300682     -1.784233
  H       0.310642      1.086206     -1.481678
17
Coordinates from ORCA-job step7_irc_IRC_B E -744.274824934195
  C       2.811833      0.559932     -0.396450
  S       1.883062     -0.872420      0.315459
  O       2.207529     -0.951143      1.788923
  C       0.137558     -0.313412      0.174282
  C      -0.740458     -0.972246      1.046094
  C      -2.120157     -0.847616      0.865587
  C      -2.625518     -0.050810     -0.168109
  C      -1.745677      0.655433     -0.994136
  C      -0.360717      0.525853     -0.828812
  H       2.956608      0.383739     -1.473121
  H       2.346652      1.535555     -0.203240
  H       3.779809      0.493102      0.120003
  H      -0.331663     -1.587896      1.850975
  H      -2.805039     -1.391926      1.522528
  H      -3.704954      0.016083     -0.332063
  H      -2.138420      1.301737     -1.783873
  H       0.311951      1.081358     -1.486472
17
Coordinates from ORCA-job step7_irc_IRC_B E -744.274971513777
  C       2.808819      0.559693     -0.394705
  S       1.884381     -0.873800      0.316010
  O       2.205261     -0.948009      1.790544
  C       0.139382     -0.317301      0.170517
  C      -0.739564     -0.974012      1.043905
  C      -2.119389     -0.846674      0.865584
  C      -2.624402     -0.049165     -0.167270
  C      -1.744683      0.654723     -0.994946
  C      -0.359310      0.522283     -0.832308
  H       2.951198      0.388859     -1.472967
  H       2.341399      1.533777     -0.195616
  H       3.779096      0.493717      0.118970
  H      -0.329646     -1.589540      1.849273
  H      -2.803418     -1.388737      1.524573
  H      -3.703186      0.020417     -0.328947
  H      -2.137020      1.302662     -1.783769
  H       0.313481      1.076430     -1.491274
17
Coordinates from ORCA-job step7_irc_IRC_B E -744.275120059389
  C       2.806648      0.560685     -0.393257
  S       1.885611     -0.875597      0.316587
  O       2.203052     -0.945118      1.792238
  C       0.139961     -0.321242      0.167008
  C      -0.738116     -0.976013      1.041933
  C      -2.117626     -0.845996      0.866009
  C      -2.622770     -0.047383     -0.166412
  C      -1.742847      0.654234     -0.996124
  C      -0.357792      0.518603     -0.835855
  H       2.945408      0.394122     -1.472060
  H       2.336628      1.531567     -0.188006
  H       3.777810      0.494459      0.117424
  H      -0.328157     -1.590886      1.847040
  H      -2.802122     -1.385619      1.526682
  H      -3.702468      0.025054     -0.325892
  H      -2.135581      1.303336     -1.783709
  H       0.314759      1.071116     -1.496032
17
Coordinates from ORCA-job step7_irc_IRC_B E -744.275273774470
  C       2.803709      0.560850     -0.391329
  S       1.886975     -0.876850      0.317116
  O       2.200810     -0.942537      1.793749
  C       0.141548     -0.325318      0.163603
  C      -0.737119     -0.977855      1.039821
  C      -2.116727     -0.844987      0.866036
  C      -2.621659     -0.045501     -0.165600
  C      -1.741697      0.653395     -0.997006
  C      -0.356546      0.514804     -0.839373
  H       2.939563      0.399491     -1.471792
  H       2.331824      1.530217     -0.180232
  H       3.777306      0.495347      0.116034
  H      -0.326458     -1.592682      1.845262
  H      -2.800765     -1.382473      1.528754
  H      -3.700755      0.029824     -0.322579
  H      -2.134006      1.303893     -1.783841
  H       0.316397      1.065703     -1.501047
17
Coordinates from ORCA-job step7_irc_IRC_B E -744.275390141187
  C       2.801848      0.562346     -0.389940
  S       1.888192     -0.878549      0.317609
  O       2.198729     -0.940261      1.795313
  C       0.141861     -0.329231      0.160461
  C      -0.735832     -0.979773      1.037874
  C      -2.114890     -0.844475      0.866743
  C      -2.620088     -0.043570     -0.164790
  C      -1.739590      0.652738     -0.998161
  C      -0.355053      0.511138     -0.842966
  H       2.933512      0.404881     -1.470561
  H       2.327659      1.528343     -0.172708
  H       3.776077      0.496293      0.114143
  H      -0.325281     -1.594187      1.843141
  H      -2.799626     -1.379360      1.530692
  H      -3.700196      0.034723     -0.319455
  H      -2.132503      1.304277     -1.784112
  H       0.317581      1.059988     -1.505710
17
Coordinates from ORCA-job step7_irc_IRC_B E -744.275441484314
  C       2.800459      0.562236     -0.388965
  S       1.888742     -0.878860      0.317789
  O       2.197884     -0.939478      1.795786
  C       0.142783     -0.330881      0.159258
  C      -0.735585     -0.980419      1.037022
  C      -2.114815     -0.843981      0.866665
  C      -2.619869     -0.042762     -0.164512
  C      -1.739418      0.652299     -0.998443
  C      -0.354634      0.509595     -0.844307
  H       2.931176      0.407044     -1.470701
  H       2.325882      1.528182     -0.169618
  H       3.776201      0.496717      0.113602
  H      -0.324610     -1.595057      1.842622
  H      -2.799132     -1.378137      1.531476
  H      -3.699193      0.036666     -0.318073
  H      -2.131817      1.304369     -1.784271
  H       0.318345      1.057789     -1.507758
17
Coordinates from ORCA-job step7_irc_IRC_B E -744.275508982507
  C       2.799472      0.562825     -0.388235
  S       1.889319     -0.879531      0.318020
  O       2.196989     -0.938631      1.796398
  C       0.143039     -0.332360      0.157581
  C      -0.734938     -0.981491      1.036477
  C      -2.114448     -0.843389      0.866546
  C      -2.619089     -0.042181     -0.163753
  C      -1.738813      0.652188     -0.999238
  C      -0.353752      0.507665     -0.845598
  H       2.928430      0.409510     -1.470277
  H       2.324106      1.527579     -0.166217
  H       3.775848      0.497185      0.112754
  H      -0.324150     -1.595740      1.841667
  H      -2.798675     -1.376789      1.532383
  H      -3.698854      0.038938     -0.316656
  H      -2.131035      1.304347     -1.784353
  H       0.318951      1.055198     -1.509924
17
Coordinates from ORCA-job step7_irc_IRC_B E -744.275571886912
  C       2.798157      0.563266     -0.387254
  S       1.889976     -0.880140      0.318242
  O       2.195956     -0.937718      1.797045
  C       0.143695     -0.334423      0.156068
  C      -0.734535     -0.982388      1.035464
  C      -2.113887     -0.842941      0.866718
  C      -2.618544     -0.041115     -0.163387
  C      -1.738054      0.651637     -0.999656
  C      -0.353194      0.505703     -0.847379
  H       2.925291      0.412361     -1.469979
  H       2.322042      1.527083     -0.162277
  H       3.775637      0.497746      0.111830
  H      -0.323493     -1.596721      1.840823
  H      -2.798119     -1.375197      1.533364
  H      -3.698089      0.041518     -0.314943
  H      -2.130202      1.304439     -1.784653
  H       0.319759      1.052212     -1.512449
