17
methylphenylsulfoxide initial geometry (RDKit MMFF)
C       2.658518      0.103169     -0.549378
S       1.855213      0.578739      1.002939
O       2.189444     -0.476601      2.016749
C       0.155502      0.251886      0.481150
C      -0.519375     -0.896435      0.907742
C      -1.832238     -1.134144      0.496949
C      -2.478027     -0.222981     -0.337480
C      -1.814317      0.928338     -0.759279
C      -0.501011      1.167732     -0.349420
H       2.374974     -0.916474     -0.822010
H       2.372395      0.798706     -1.341808
H       3.740797      0.149958     -0.406018
H      -0.026660     -1.611070      1.564145
H      -2.350549     -2.028917      0.832562
H      -3.501540     -0.408262     -0.654050
H      -2.322267      1.641612     -1.403621
H      -0.000859      2.074746     -0.679174
