17
Coordinates from ORCA-job step5_ts E -744.217122704161
  C           2.88432010319415      0.55666538297664     -0.47181564950472
  S           1.79552625499129     -0.41333491618238      0.59411764093796
  O           2.33336664311286     -1.31301128222587      1.71569588053791
  C           0.09352593902549     -0.25510834559566      0.25533425269752
  C          -0.78960159681215     -0.99782168894420      1.06148414631430
  C          -2.16043800017461     -0.90300833261198      0.82625673395270
  C          -2.66214227289453     -0.08447767877735     -0.19380195481044
  C          -1.77106754757505      0.64764139960132     -0.98597508908798
  C          -0.39261307461647      0.57341417390486     -0.77401939529671
  H           2.78683651557743      0.25661190491561     -1.52596458642742
  H           2.71336192451145      1.63682095831521     -0.34982966950285
  H           3.88342148099457      0.29171186346213     -0.09920965960927
  H          -0.38745487529908     -1.63235824710253      1.85338343480313
  H          -2.84658522661417     -1.48007788086468      1.45235533638970
  H          -3.73813258475285     -0.01758720355101     -0.36963754753610
  H          -2.14923085709789      1.29090128643688     -1.78535666173584
  H           0.28660334442956      1.15348026624301     -1.40234498212189
