17
Coordinates from ORCA-job step5_ts E -744.086364723268
  C       2.697972      0.092426     -0.548116
  S       1.721933     -0.131984      0.817292
  O       2.161006     -0.549026      1.994986
  C       0.133593      0.258562      0.424900
  C      -0.506537     -0.892359      0.884006
  C      -1.830133     -1.132187      0.500126
  C      -2.499538     -0.219998     -0.322704
  C      -1.850579      0.940783     -0.761096
  C      -0.528865      1.190888     -0.379825
  H       2.427745     -0.946845     -0.782237
  H       2.412765      0.776590     -1.360694
  H       3.774161      0.169701     -0.337037
  H       0.048052     -1.569979      1.539255
  H      -2.342677     -2.032602      0.849682
  H      -3.535279     -0.408241     -0.617536
  H      -2.378825      1.658438     -1.394612
  H      -0.025097      2.106295     -0.705718
17
Coordinates from ORCA-job step5_ts E -744.153110281483
  C       2.811776      0.110169     -0.579080
  S       1.746989     -0.165585      0.763991
  O       2.120123     -0.512502      2.060357
  C       0.115105      0.192302      0.401836
  C      -0.574522     -0.934871      0.883210
  C      -1.909356     -1.127975      0.528710
  C      -2.562296     -0.197886     -0.290048
  C      -1.876828      0.929092     -0.751377
  C      -0.537522      1.133096     -0.401243
  H       2.694184     -0.927532     -0.895331
  H       2.500666      0.791913     -1.385265
  H       3.854905      0.306781     -0.294880
  H      -0.041772     -1.631094      1.535234
  H      -2.447388     -2.005453      0.898296
  H      -3.611087     -0.346851     -0.559432
  H      -2.390219      1.664898     -1.375678
  H      -0.013061      2.031957     -0.738627
17
Coordinates from ORCA-job step5_ts E -744.177241074640
  C       2.901358      0.154035     -0.574803
  S       1.756864     -0.195979      0.715817
  O       2.055777     -0.668132      2.034592
  C       0.105210      0.150060      0.357342
  C      -0.618506     -0.942213      0.885671
  C      -1.961866     -1.105071      0.583297
  C      -2.608593     -0.186285     -0.251938
  C      -1.897511      0.901584     -0.767437
  C      -0.541303      1.090698     -0.456090
  H       2.864494     -0.837976     -1.023701
  H       2.595750      0.903492     -1.319150
  H       3.920297      0.349673     -0.213642
  H      -0.095023     -1.630813      1.552404
  H      -2.509776     -1.951305      1.007575
  H      -3.668323     -0.314520     -0.486426
  H      -2.409546      1.626593     -1.405455
  H      -0.009605      1.966621     -0.837384
17
Coordinates from ORCA-job step5_ts E -744.184250405590
  C       2.988875      0.124031     -0.574384
  S       1.773647     -0.103227      0.694989
  O       1.818652     -0.662812      2.060928
  C       0.106777      0.165859      0.309197
  C      -0.606518     -0.939812      0.853591
  C      -1.956134     -1.112739      0.588921
  C      -2.633884     -0.189749     -0.216132
  C      -1.938258      0.899488     -0.749322
  C      -0.572122      1.092696     -0.492205
  H       2.979588     -0.849733     -1.098526
  H       2.708498      0.912249     -1.290008
  H       4.001990      0.271301     -0.176238
  H      -0.068270     -1.628406      1.508524
  H      -2.482783     -1.966067      1.026624
  H      -3.701700     -0.315245     -0.410837
  H      -2.474971      1.632469     -1.356477
  H      -0.063691      1.980159     -0.877972
17
Coordinates from ORCA-job step5_ts E -744.209040338866
  C       2.937920      0.225443     -0.620543
  S       1.808850     -0.289988      0.692992
  O       2.153462     -0.576783      2.109673
  C       0.098382     -0.053318      0.337877
  C      -0.702163     -1.065466      0.900096
  C      -2.069804     -1.087057      0.614123
  C      -2.643421     -0.118609     -0.222726
  C      -1.835959      0.876676     -0.775968
  C      -0.470717      0.915763     -0.495698
  H       3.123405     -0.718061     -1.143950
  H       2.418321      0.929985     -1.285907
  H       3.856627      0.676743     -0.214946
  H      -0.246670     -1.795655      1.570181
  H      -2.695983     -1.864853      1.059284
  H      -3.716170     -0.133423     -0.429967
  H      -2.274771      1.653467     -1.408368
  H       0.138386      1.735599     -0.885481
17
Coordinates from ORCA-job step5_ts E -744.224829780227
  C       2.897824      0.295616     -0.627400
  S       1.811305     -0.417570      0.640582
  O       2.401988     -0.579211      2.020608
  C       0.084698     -0.203238      0.344003
  C      -0.785761     -1.131163      0.941812
  C      -2.150217     -1.052012      0.657281
  C      -2.652078     -0.069924     -0.212619
  C      -1.773752      0.845913     -0.795708
  C      -0.408872      0.790542     -0.514929
  H       3.313458     -0.540672     -1.195866
  H       2.300984      0.952382     -1.275757
  H       3.674008      0.897444     -0.130472
  H      -0.387990     -1.881207      1.628819
  H      -2.834286     -1.767651      1.120738
  H      -3.722650     -0.012277     -0.422898
  H      -2.151840      1.635443     -1.451624
  H       0.262876      1.548045     -0.925898
17
Coordinates from ORCA-job step5_ts E -744.222285670022
  C       2.926621      0.328130     -0.600305
  S       1.792249     -0.431418      0.583598
  O       2.378092     -0.766108      1.949675
  C       0.080341     -0.198286      0.315061
  C      -0.786370     -1.103903      0.956384
  C      -2.153770     -1.024331      0.698433
  C      -2.667268     -0.075112     -0.198944
  C      -1.793713      0.817854     -0.824806
  C      -0.423759      0.779101     -0.559750
  H       3.339812     -0.465332     -1.232317
  H       2.378266      1.063572     -1.205947
  H       3.700061      0.861919     -0.029286
  H      -0.379282     -1.829558      1.663449
  H      -2.830203     -1.718642      1.204034
  H      -3.740343     -0.024974     -0.396925
  H      -2.180565      1.579258     -1.508013
  H       0.239529      1.518291     -1.013669
17
Coordinates from ORCA-job step5_ts E -744.219445509561
  C       2.926756      0.395212     -0.560873
  S       1.788318     -0.460618      0.540144
  O       2.352558     -1.029030      1.846103
  C       0.087622     -0.231033      0.273094
  C      -0.787579     -1.077112      0.984606
  C      -2.157812     -0.979278      0.750766
  C      -2.672832     -0.066697     -0.180347
  C      -1.791139      0.772001     -0.869315
  C      -0.415562      0.714847     -0.640779
  H       3.349536     -0.309193     -1.288459
  H       2.395727      1.210835     -1.071012
  H       3.699044      0.850259      0.076101
  H      -0.381020     -1.772360      1.721086
  H      -2.835383     -1.631342      1.308941
  H      -3.748792      0.000389     -0.355180
  H      -2.175812      1.509488     -1.579464
  H       0.246068      1.414095     -1.154740
17
Coordinates from ORCA-job step5_ts E -744.218374218416
  C       2.933734      0.439707     -0.527164
  S       1.783223     -0.473431      0.512672
  O       2.339418     -1.183013      1.753869
  C       0.085741     -0.238398      0.250474
  C      -0.786255     -1.050101      1.004824
  C      -2.158913     -0.948319      0.786009
  C      -2.678809     -0.064239     -0.168346
  C      -1.798425      0.739817     -0.900351
  C      -0.419713      0.675948     -0.694976
  H       3.320931     -0.194954     -1.335880
  H       2.435231      1.330909     -0.933617
  H       3.731804      0.782647      0.146070
  H      -0.372889     -1.724018      1.756939
  H      -2.833548     -1.574764      1.376295
  H      -3.756293      0.005819     -0.331763
  H      -2.186471      1.450303     -1.635641
  H       0.240930      1.336550     -1.258741
17
Coordinates from ORCA-job step5_ts E -744.217795220588
  C       2.928553      0.471147     -0.507893
  S       1.785256     -0.477864      0.507342
  O       2.331742     -1.263761      1.706698
  C       0.087291     -0.251403      0.238131
  C      -0.785542     -1.038977      1.015767
  C      -2.159323     -0.929204      0.805031
  C      -2.678231     -0.058723     -0.161584
  C      -1.796018      0.719585     -0.919487
  C      -0.416171      0.642741     -0.728047
  H       3.281188     -0.111276     -1.370647
  H       2.446286      1.403916     -0.833371
  H       3.753763      0.736750      0.167459
  H      -0.371968     -1.702994      1.776439
  H      -2.835084     -1.537395      1.412873
  H      -3.756338      0.018898     -0.317427
  H      -2.183366      1.415118     -1.669279
  H       0.247659      1.273903     -1.321331
17
Coordinates from ORCA-job step5_ts E -744.217726946145
  C       2.923444      0.489339     -0.498263
  S       1.786772     -0.479987      0.506875
  O       2.331600     -1.298207      1.685390
  C       0.087991     -0.256590      0.234586
  C      -0.785792     -1.031716      1.023090
  C      -2.159734     -0.918987      0.814822
  C      -2.677213     -0.057201     -0.160295
  C      -1.794006      0.707271     -0.931043
  C      -0.413756      0.625201     -0.743614
  H       3.240448     -0.057444     -1.397827
  H       2.460812      1.450492     -0.765327
  H       3.772259      0.691286      0.169406
  H      -0.372798     -1.690434      1.788727
  H      -2.836550     -1.517680      1.430848
  H      -3.755417      0.022575     -0.314570
  H      -2.180661      1.392661     -1.690448
  H       0.252297      1.239882     -1.351683
17
Coordinates from ORCA-job step5_ts E -744.217396204359
  C       2.920033      0.502060     -0.490700
  S       1.788621     -0.475253      0.513286
  O       2.328508     -1.324553      1.672230
  C       0.088791     -0.260282      0.231053
  C      -0.785293     -1.027129      1.026698
  C      -2.159441     -0.912466      0.820748
  C      -2.676150     -0.055705     -0.159189
  C      -1.792777      0.699427     -0.938849
  C      -0.412085      0.612755     -0.755084
  H       3.210378     -0.022498     -1.412671
  H       2.469537      1.478995     -0.718845
  H       3.787442      0.663115      0.163876
  H      -0.372550     -1.683098      1.794902
  H      -2.836786     -1.505140      1.441968
  H      -3.754520      0.026002     -0.311546
  H      -2.179459      1.378258     -1.704082
  H       0.255448      1.215974     -1.373122
17
Coordinates from ORCA-job step5_ts E -744.217242693288
  C       2.914982      0.514244     -0.484365
  S       1.790290     -0.472746      0.518765
  O       2.328636     -1.347707      1.659156
  C       0.089770     -0.263221      0.230166
  C      -0.785387     -1.021841      1.032051
  C      -2.159464     -0.905989      0.826269
  C      -2.674524     -0.055024     -0.159606
  C      -1.790251      0.691240     -0.946683
  C      -0.409413      0.601038     -0.764289
  H       3.174579      0.015293     -1.429695
  H       2.479709      1.507221     -0.669057
  H       3.801385      0.631271      0.153971
  H      -0.373687     -1.674711      1.803521
  H      -2.837916     -1.492828      1.451783
  H      -3.752846      0.027711     -0.311972
  H      -2.176157      1.363162     -1.718362
  H       0.259992      1.193347     -1.390979
17
Coordinates from ORCA-job step5_ts E -744.217198291460
  C       2.909109      0.522601     -0.481913
  S       1.791707     -0.469661      0.525668
  O       2.330971     -1.355109      1.657477
  C       0.090713     -0.265291      0.231821
  C      -0.786054     -1.018646      1.036596
  C      -2.159783     -0.902621      0.828780
  C      -2.672554     -0.055872     -0.161988
  C      -1.786856      0.684860     -0.952589
  C      -0.406161      0.593041     -0.768734
  H       3.133808      0.046467     -1.447881
  H       2.493129      1.530622     -0.625675
  H       3.814215      0.596662      0.136256
  H      -0.376034     -1.669192      1.810979
  H      -2.839749     -1.485742      1.456105
  H      -3.750648      0.027118     -0.315988
  H      -2.171384      1.352176     -1.728932
  H       0.265267      1.179048     -1.399309
17
Coordinates from ORCA-job step5_ts E -744.217161375969
  C       2.903618      0.531597     -0.478416
  S       1.793038     -0.466630      0.531944
  O       2.332634     -1.364270      1.654062
  C       0.091612     -0.267635      0.232953
  C      -0.786622     -1.015249      1.041139
  C      -2.160051     -0.898865      0.831617
  C      -2.670661     -0.056649     -0.164183
  C      -1.783614      0.678065     -0.958819
  C      -0.403052      0.584457     -0.773840
  H       3.092959      0.079823     -1.463611
  H       2.508323      1.552973     -0.581193
  H       3.826171      0.562722      0.117238
  H      -0.378129     -1.663160      1.818589
  H      -2.841453     -1.477808      1.461234
  H      -3.748557      0.026800     -0.319482
  H      -2.166868      1.340499     -1.739946
  H       0.270348      1.163791     -1.408615
17
Coordinates from ORCA-job step5_ts E -744.217131940681
  C       2.898321      0.537767     -0.477289
  S       1.794147     -0.461809      0.540145
  O       2.334820     -1.364110      1.658080
  C       0.092388     -0.268519      0.235676
  C      -0.787370     -1.012949      1.044889
  C      -2.160385     -0.897448      0.832359
  C      -2.668766     -0.058595     -0.167496
  C      -1.780368      0.672932     -0.963479
  C      -0.400062      0.579234     -0.775678
  H       3.050605      0.106719     -1.478156
  H       2.526529      1.570982     -0.543889
  H       3.837055      0.528024      0.093274
  H      -0.380536     -1.659092      1.824731
  H      -2.843211     -1.474248      1.462385
  H      -3.746383      0.024304     -0.325149
  H      -2.162259      1.332001     -1.748105
  H       0.275173      1.155267     -1.411625
17
Coordinates from ORCA-job step5_ts E -744.217121284218
  C       2.893970      0.545157     -0.474131
  S       1.795304     -0.456745      0.548184
  O       2.335665     -1.368458      1.658666
  C       0.093066     -0.269272      0.237409
  C      -0.787838     -1.009724      1.048711
  C      -2.160554     -0.895194      0.833871
  C      -2.667115     -0.060443     -0.170395
  C      -1.777739      0.667064     -0.968889
  C      -0.397579      0.573123     -0.779042
  H       3.008301      0.136866     -1.489606
  H       2.547028      1.588726     -0.503865
  H       3.847939      0.493637      0.068218
  H      -0.382259     -1.653656      1.831091
  H      -2.844513     -1.469269      1.465138
  H      -3.744534      0.021890     -0.329852
  H      -2.158655      1.321939     -1.757479
  H       0.279208      1.144822     -1.417357
17
Coordinates from ORCA-job step5_ts E -744.217120388358
  C       2.890146      0.549310     -0.473622
  S       1.795901     -0.450525      0.556445
  O       2.336762     -1.363484      1.665763
  C       0.093524     -0.268261      0.240891
  C      -0.788464     -1.007393      1.052026
  C      -2.160777     -0.895238      0.833464
  C      -2.665632     -0.063745     -0.174405
  C      -1.775287      0.662767     -0.972677
  C      -0.395444      0.570778     -0.779007
  H       2.966269      0.160699     -1.500344
  H       2.571156      1.602230     -0.471410
  H       3.856768      0.458077      0.040389
  H      -0.384144     -1.649556      1.836547
  H      -2.845754     -1.468589      1.464273
  H      -3.742756      0.016721     -0.336870
  H      -2.155135      1.314884     -1.764058
  H       0.282563      1.141785     -1.416732
17
Coordinates from ORCA-job step5_ts E -744.217123831722
  C       2.887341      0.552104     -0.473562
  S       1.796151     -0.443516      0.564577
  O       2.337158     -1.355004      1.675133
  C       0.093762     -0.266384      0.244453
  C      -0.788982     -1.005351      1.054767
  C      -2.160917     -0.896226      0.832370
  C      -2.664461     -0.067662     -0.178599
  C      -1.773444      0.659084     -0.975874
  C      -0.393928      0.570029     -0.778110
  H       2.925615      0.182184     -1.509244
  H       2.598138      1.613197     -0.442444
  H       3.864382      0.422309      0.011660
  H      -0.385622     -1.645840      1.841173
  H      -2.846617     -1.469682      1.462289
  H      -3.741303      0.010403     -0.344156
  H      -2.152479      1.308988     -1.769460
  H       0.284904      1.141828     -1.414301
17
Coordinates from ORCA-job step5_ts E -744.217126424355
  C       2.885301      0.553859     -0.473758
  S       1.796174     -0.435725      0.572874
  O       2.336954     -1.343835      1.686380
  C       0.093872     -0.263945      0.247928
  C      -0.789369     -1.003618      1.056944
  C      -2.160944     -0.897941      0.830734
  C      -2.663493     -0.071943     -0.182851
  C      -1.772054      0.655921     -0.978610
  C      -0.392868      0.570388     -0.776696
  H       2.886197      0.201951     -1.516381
  H       2.627112      1.621892     -0.416422
  H       3.870729      0.386647     -0.017813
  H      -0.386713     -1.642616      1.844943
  H      -2.847128     -1.472137      1.459444
  H      -3.740063      0.003443     -0.351441
  H      -2.150497      1.304086     -1.773897
  H       0.286486      1.144034     -1.410706
17
Coordinates from ORCA-job step5_ts E -744.217127082850
  C       2.883444      0.558163     -0.471085
  S       1.796518     -0.425647      0.583902
  O       2.335706     -1.336358      1.695971
  C       0.094104     -0.261268      0.250841
  C      -0.789516     -1.000172      1.059924
  C      -2.160759     -0.898595      0.829922
  C      -2.662369     -0.076864     -0.187610
  C      -1.770725      0.650588     -0.983445
  C      -0.391797      0.568630     -0.777553
  H       2.834921      0.233911     -1.521538
  H       2.666273      1.632763     -0.377695
  H       3.878080      0.341482     -0.057688
  H      -0.387473     -1.636801      1.850193
  H      -2.847334     -1.472575      1.458389
  H      -3.738695     -0.004503     -0.359176
  H      -2.148743      1.295237     -1.781775
  H       0.288060      1.142469     -1.410905
17
Coordinates from ORCA-job step5_ts E -744.217126314822
  C       2.884129      0.557123     -0.471507
  S       1.796075     -0.420148      0.588536
  O       2.334539     -1.325568      1.705205
  C       0.093812     -0.258385      0.252729
  C      -0.789520     -0.999237      1.060363
  C      -2.160608     -0.900735      0.828130
  C      -2.662387     -0.080217     -0.190294
  C      -1.771081      0.649580     -0.984345
  C      -0.392334      0.571126     -0.775840
  H       2.814626      0.242048     -1.523523
  H       2.686214      1.634389     -0.366597
  H       3.881224      0.320355     -0.075353
  H      -0.387349     -1.635102      1.851185
  H      -2.846913     -1.476315      1.455426
  H      -3.738583     -0.010324     -0.363685
  H      -2.149246      1.293823     -1.782935
  H       0.287099      1.148048     -1.406824
17
Coordinates from ORCA-job step5_ts E -744.217125097996
  C       2.884134      0.557134     -0.471538
  S       1.795817     -0.417079      0.591046
  O       2.334053     -1.320133      1.709733
  C       0.093678     -0.256942      0.253929
  C      -0.789583     -0.998496      1.060993
  C      -2.160553     -0.901664      0.827373
  C      -2.662262     -0.082197     -0.191933
  C      -1.771033      0.648513     -0.985237
  C      -0.392423      0.571980     -0.775125
  H       2.801300      0.249563     -1.524801
  H       2.699088      1.635851     -0.357988
  H       3.882314      0.306669     -0.086657
  H      -0.387448     -1.633644      1.852407
  H      -2.846814     -1.477794      1.454212
  H      -3.738362     -0.013674     -0.366461
  H      -2.149173      1.292177     -1.784307
  H       0.286964      1.150195     -1.404974
17
Coordinates from ORCA-job step5_ts E -744.217126457796
  C       2.884246      0.556809     -0.471750
  S       1.795618     -0.414505      0.593167
  O       2.333598     -1.315211      1.713864
  C       0.093575     -0.255681      0.254912
  C      -0.789599     -0.998037      1.061335
  C      -2.160477     -0.902597      0.826597
  C      -2.662178     -0.083767     -0.193226
  C      -1.771043      0.647919     -0.985736
  C      -0.392544      0.572975     -0.774341
  H       2.791337      0.254368     -1.525641
  H       2.708874      1.636541     -0.352405
  H       3.883092      0.296377     -0.095294
  H      -0.387471     -1.632773      1.853085
  H      -2.846665     -1.479378      1.452918
  H      -3.738202     -0.016369     -0.368665
  H      -2.149190      1.291313     -1.785018
  H       0.286726      1.152476     -1.403129
17
Coordinates from ORCA-job step5_ts E -744.217122704161
  C       2.884320      0.556665     -0.471816
  S       1.795526     -0.413335      0.594118
  O       2.333367     -1.313011      1.715696
  C       0.093526     -0.255108      0.255334
  C      -0.789602     -0.997822      1.061484
  C      -2.160438     -0.903008      0.826257
  C      -2.662142     -0.084478     -0.193802
  C      -1.771068      0.647641     -0.985975
  C      -0.392613      0.573414     -0.774019
  H       2.786837      0.256612     -1.525965
  H       2.713362      1.636821     -0.349830
  H       3.883421      0.291712     -0.099210
  H      -0.387455     -1.632358      1.853383
  H      -2.846585     -1.480078      1.452355
  H      -3.738133     -0.017587     -0.369638
  H      -2.149231      1.290901     -1.785357
  H       0.286603      1.153480     -1.402345
