17
Coordinates from ORCA-job step3_opt E -744.283224279402
  C           2.69797241208923      0.09242593452186     -0.54811646845967
  S           1.84223704575336      0.55755614689091      1.01661779402888
  O           2.16100611525417     -0.54902576307407      1.99498624166657
  C           0.13359262031597      0.25856181811439      0.42490039814140
  C          -0.50653726754957     -0.89235919644993      0.88400628763372
  C          -1.83013318053586     -1.13218671899192      0.50012606772402
  C          -2.49953835165294     -0.21999832292694     -0.32270437445701
  C          -1.85057867168707      0.94078262611771     -0.76109647781763
  C          -0.52886547256499      1.19088782806541     -0.37982488375537
  H           2.42774470684130     -0.94684547162543     -0.78223667410312
  H           2.41276489567444      0.77659031269246     -1.36069401818999
  H           3.77416106963870      0.16970131617743     -0.33703702291693
  H           0.04805162875659     -1.56997878243371      1.53925548222007
  H          -2.34267657239916     -2.03260236139029      0.84968215259602
  H          -3.53527889640122     -0.40824068301200     -0.61753607834146
  H          -2.37882535948906      1.65843804268867     -1.39461235467301
  H          -0.02509672204392      2.10629527463546     -0.70571807129649
