17
Coordinates from ORCA-job step3_opt E -744.281058218512
  C       2.658518      0.103169     -0.549378
  S       1.855213      0.578739      1.002939
  O       2.189444     -0.476601      2.016749
  C       0.155502      0.251886      0.481150
  C      -0.519375     -0.896435      0.907742
  C      -1.832238     -1.134144      0.496949
  C      -2.478027     -0.222981     -0.337480
  C      -1.814317      0.928338     -0.759279
  C      -0.501011      1.167732     -0.349420
  H       2.374974     -0.916474     -0.822010
  H       2.372395      0.798706     -1.341808
  H       3.740797      0.149958     -0.406018
  H      -0.026660     -1.611070      1.564145
  H      -2.350549     -2.028917      0.832562
  H      -3.501540     -0.408262     -0.654050
  H      -2.322267      1.641612     -1.403621
  H      -0.000859      2.074746     -0.679174
17
Coordinates from ORCA-job step3_opt E -744.282577741123
  C       2.682869      0.086338     -0.544093
  S       1.846181      0.577148      1.001523
  O       2.177015     -0.478052      2.024303
  C       0.149024      0.250316      0.441861
  C      -0.508318     -0.898241      0.883879
  C      -1.829473     -1.135506      0.492784
  C      -2.493436     -0.220683     -0.331130
  C      -1.838734      0.939899     -0.756925
  C      -0.520042      1.181958     -0.362541
  H       2.415638     -0.950128     -0.797796
  H       2.397012      0.769891     -1.358054
  H       3.766700      0.156346     -0.369122
  H       0.010177     -1.602312      1.540619
  H      -2.342726     -2.036871      0.837697
  H      -3.527682     -0.407318     -0.633032
  H      -2.361336      1.663249     -1.388475
  H      -0.022867      2.103970     -0.681499
17
Coordinates from ORCA-job step3_opt E -744.283102246719
  C       2.696905      0.077419     -0.542412
  S       1.839659      0.572517      1.006255
  O       2.163252     -0.500097      2.019663
  C       0.139366      0.256188      0.418569
  C      -0.500353     -0.895782      0.871068
  C      -1.825600     -1.135515      0.490945
  C      -2.501787     -0.219275     -0.324047
  C      -1.854648      0.946881     -0.755360
  C      -0.532525      1.193794     -0.374635
  H       2.434802     -0.965088     -0.780217
  H       2.413769      0.754583     -1.364542
  H       3.776401      0.159059     -0.340295
  H       0.043575     -1.585042      1.524547
  H      -2.333354     -2.040095      0.839725
  H      -3.539335     -0.408175     -0.616243
  H      -2.385476      1.671254     -1.380719
  H      -0.034650      2.117377     -0.692304
17
Coordinates from ORCA-job step3_opt E -744.283199894974
  C       2.699235      0.081421     -0.545079
  S       1.839900      0.566033      1.011481
  O       2.159318     -0.524557      2.008484
  C       0.134475      0.259803      0.418449
  C      -0.501372     -0.893137      0.875153
  C      -1.826228     -1.134213      0.494187
  C      -2.501549     -0.220010     -0.322571
  C      -1.855562      0.945351     -0.757279
  C      -0.533557      1.195726     -0.378138
  H       2.432371     -0.959222     -0.780568
  H       2.417577      0.762292     -1.363109
  H       3.776139      0.160585     -0.333792
  H       0.051259     -1.574227      1.529097
  H      -2.334246     -2.037993      0.843273
  H      -3.538340     -0.409549     -0.614552
  H      -2.386600      1.666493     -1.385277
  H      -0.032818      2.115206     -0.699759
17
Coordinates from ORCA-job step3_opt E -744.283223624280
  C       2.698698      0.087957     -0.547474
  S       1.841495      0.560665      1.015079
  O       2.159356     -0.541615      1.999390
  C       0.132932      0.260245      0.422645
  C      -0.504371     -0.892019      0.881247
  C      -1.828328     -1.132907      0.498012
  C      -2.500100     -0.220455     -0.322521
  C      -1.852849      0.942310     -0.759690
  C      -0.531166      1.193536     -0.379511
  H       2.427488     -0.950610     -0.783723
  H       2.416826      0.772973     -1.360751
  H       3.774704      0.163512     -0.334308
  H       0.050388     -1.569761      1.536236
  H      -2.338565     -2.034879      0.847195
  H      -3.535994     -0.409599     -0.616285
  H      -2.382346      1.660829     -1.391273
  H      -0.028167      2.109818     -0.704271
17
Coordinates from ORCA-job step3_opt E -744.283226614807
  C       2.698163      0.091049     -0.548110
  S       1.842155      0.558547      1.016181
  O       2.160300     -0.546980      1.996244
  C       0.133178      0.259366      0.424461
  C      -0.505882     -0.892084      0.883493
  C      -1.829528     -1.132379      0.499595
  C      -2.499586     -0.220306     -0.322656
  C      -1.851266      0.941068     -0.760728
  C      -0.529622      1.191794     -0.379769
  H       2.426580     -0.947440     -0.783859
  H       2.414858      0.776519     -1.360253
  H       3.774216      0.166564     -0.335860
  H       0.048804     -1.569563      1.538735
  H      -2.341217     -2.033339      0.848976
  H      -3.535278     -0.408943     -0.617269
  H      -2.379900      1.658841     -1.393762
  H      -0.025975      2.107289     -0.705420
17
Coordinates from ORCA-job step3_opt E -744.283224279402
  C       2.697972      0.092426     -0.548116
  S       1.842237      0.557556      1.016618
  O       2.161006     -0.549026      1.994986
  C       0.133593      0.258562      0.424900
  C      -0.506537     -0.892359      0.884006
  C      -1.830133     -1.132187      0.500126
  C      -2.499538     -0.219998     -0.322704
  C      -1.850579      0.940783     -0.761096
  C      -0.528865      1.190888     -0.379825
  H       2.427745     -0.946845     -0.782237
  H       2.412765      0.776590     -1.360694
  H       3.774161      0.169701     -0.337037
  H       0.048052     -1.569979      1.539255
  H      -2.342677     -2.032602      0.849682
  H      -3.535279     -0.408241     -0.617536
  H      -2.378825      1.658438     -1.394612
  H      -0.025097      2.106295     -0.705718
